
$ Database file written 2012- 5-31
$ From database: USER                    
 ELEMENT /-   ELECTRON_GAS              0.0000E+00  0.0000E+00  0.0000E+00!
 ELEMENT VA   VACUUM                    0.0000E+00  0.0000E+00  0.0000E+00!
 ELEMENT H    1/2_MOLE_H2(GAS)          1.0079E+00  4.2340E+03  6.5285E+01!
 ELEMENT O    1/2_MOLE_O2(GAS)          1.5999E+01  4.3410E+03  1.0252E+02!
 
 SPECIES H1O1                        H1O1!
 SPECIES H1O2                        H1O2!
 SPECIES H2                          H2!
 SPECIES H2O1                        H2O1!
 SPECIES H2O2                        H2O2!
 SPECIES O2                          O2!
 SPECIES O3                          O3!
 
 FUNCTION F10447T    2.98150E+02  +211801.621+24.4989816*T-20.78611*T*LN(T); 
       6.00000E+03   N !
 FUNCTION F10666T    2.98150E+02  +30698.6898+15.9096451*T-29.97699*T*LN(T)
     +.001713168*T**2-6.799205E-07*T**3-25503.82*T**(-1);  1.00000E+03  Y
      +31735.5127-12.686636*T-25.42186*T*LN(T)-.003149545*T**2
     +1.34404917E-07*T**3+116618.65*T**(-1);  3.00000E+03  Y
      +41016.0783-20.7343256*T-24.94216*T*LN(T)-.0023107985*T**2
     +5.91863E-08*T**3-6415210*T**(-1);  8.60000E+03  Y
      -154907.953+370.326117*T-69.24542*T*LN(T)+.0019361405*T**2
     -1.47539017E-08*T**3+1.4391015E+08*T**(-1);  1.80000E+04  Y
      +326722.277-65.0792741*T-24.2768*T*LN(T)+6.42189E-05*T**2
     -1.30298483E-10*T**3-8.292415E+08*T**(-1);  2.00000E+04  N !
 FUNCTION F10729T    2.98150E+02  +1075.64106-55.242048*T-24.45435*T*LN(T)
     -.018507875*T**2+2.36297E-06*T**3-29469.05*T**(-1);  8.00000E+02  Y
      -7932.99164+54.2016233*T-40.775*T*LN(T)-.00501027*T**2
     +2.122915E-07*T**3+925845*T**(-1);  3.60000E+03  Y
      -67875.8961+275.406716*T-68.1173*T*LN(T)+6.12331E-04*T**2
     -6.573855E-09*T**3+26048030*T**(-1);  6.00000E+03  N !
 FUNCTION F10854T    2.98150E+02  -9522.97393+78.5273873*T-31.35707*T*LN(T)
     +.0027589925*T**2-7.46390667E-07*T**3+56582.3*T**(-1);  1.00000E+03  Y
      +180.10884-15.6128262*T-17.84857*T*LN(T)-.00584168*T**2
     +3.14618667E-07*T**3-1280036*T**(-1);  2.10000E+03  Y
      -18840.1661+92.3120249*T-32.05082*T*LN(T)-.0010728235*T**2
     +1.14281783E-08*T**3+3561002.5*T**(-1);  6.00000E+03  N !
 FUNCTION F10963T    2.98150E+02  -250423.434+4.45470312*T-28.40916*T*LN(T)
     -.00623741*T**2-6.01526167E-08*T**3-64163.45*T**(-1);  1.10000E+03  Y
      -256145.879+30.1894682*T-31.43044*T*LN(T)-.007055445*T**2
     +3.05535833E-07*T**3+1246309.5*T**(-1);  2.80000E+03  Y
      -268423.418+116.690197*T-42.96842*T*LN(T)-.003069987*T**2
     +6.97594167E-08*T**3+2458230.5*T**(-1);  8.40000E+03  Y
      -489068.882+553.259882*T-92.4077*T*LN(T)+.0016703495*T**2
     -1.32333233E-08*T**3+1.765625E+08*T**(-1);  1.80000E+04  Y
      -165728.771+239.645643*T-59.77872*T*LN(T)+2.213599E-04*T**2
     -1.2921095E-09*T**3-4.1931655E+08*T**(-1);  2.00000E+04  N !
 FUNCTION F10983T    2.98150E+02  -147258.971-37.1497212*T-26.10636*T*LN(T)
     -.036948065*T**2+6.659505E-06*T**3+65357.65*T**(-1);  7.00000E+02  Y
      -156470.505+120.191295*T-50.94271*T*LN(T)-.007931945*T**2
     +4.29733833E-07*T**3+684985.5*T**(-1);  1.50000E+03  N !
 FUNCTION F13469T    2.98150E+02  +243206.494-20.8612587*T-21.01555*T*LN(T)
     +1.2687055E-04*T**2-1.23131283E-08*T**3-42897.09*T**(-1);  2.95000E+03  
     Y
      +252301.423-52.0847285*T-17.21188*T*LN(T)-5.413565E-04*T**2
     +7.64520667E-09*T**3-3973170.5*T**(-1);  6.00000E+03  N !
 FUNCTION F13839T    2.98150E+02  -6960.69252-51.1831473*T-22.25862*T*LN(T)
     -.01023867*T**2+1.339947E-06*T**3-76749.55*T**(-1);  9.00000E+02  Y
      -13136.0172+24.743296*T-33.55726*T*LN(T)-.0012348985*T**2
     +1.66943333E-08*T**3+539886*T**(-1);  3.70000E+03  Y
      +14154.6461-51.4854586*T-24.47978*T*LN(T)-.002634759*T**2
     +6.01544333E-08*T**3-15120935*T**(-1);  9.60000E+03  Y
      -314316.628+515.068037*T-87.56143*T*LN(T)+.0025787245*T**2
     -1.878765E-08*T**3+2.9052515E+08*T**(-1);  1.85000E+04  Y
      -108797.175+288.483019*T-63.737*T*LN(T)+.0014375*T**2-9E-09*T**3
     +.25153895*T**(-1);  2.00000E+04  N !
 FUNCTION F14145T    2.98150E+02  +130696.944-37.9096651*T-27.58118*T*LN(T)
     -.02763076*T**2+4.60539333E-06*T**3+99530.45*T**(-1);  7.00000E+02  Y
      +114760.623+176.626736*T-60.10286*T*LN(T)+.00206456*T**2
     -5.17486667E-07*T**3+1572175*T**(-1);  1.30000E+03  Y
      +49468.3958+710.094819*T-134.3696*T*LN(T)+.039707355*T**2
     -4.10457667E-06*T**3+12362250*T**(-1);  2.10000E+03  Y
      +866367.075-3566.80563*T+421.2001*T*LN(T)-.1284109*T**2
     +5.44768833E-06*T**3-2.1304835E+08*T**(-1);  2.80000E+03  Y
      +409416.384-1950.70834*T+223.4437*T*LN(T)-.0922361*T**2
     +4.306855E-06*T**3-21589870*T**(-1);  3.50000E+03  Y
      -1866338.6+6101.13383*T-764.8435*T*LN(T)+.09852775*T**2
     -2.59784667E-06*T**3+9.610855E+08*T**(-1);  4.90000E+03  Y
      +97590.0432+890.79836*T-149.9608*T*LN(T)+.01283575*T**2
     -3.555105E-07*T**3-2.1699975E+08*T**(-1);  6.00000E+03  N !
 FUNCTION F10952T    2.98150E+02  -332319.671+1078.59563*T-186.8669*T*LN(T)
     +.2320948*T**2-9.14296167E-05*T**3+978019*T**(-1);  5.00000E+02  Y
      -62418.8788-3288.18729*T+495.1304*T*LN(T)-.504926*T**2
     +4.917665E-05*T**3-18523425*T**(-1);  5.40000E+02  Y
      -8528143.9+142414.45*T-22596.19*T*LN(T)+27.48508*T**2
     -.00631160667*T**3+5.63356E+08*T**(-1);  6.00000E+02  Y
      -331037.282+741.178604*T-117.41*T*LN(T);  6.01000E+02  N !
 FUNCTION F10981T    2.98150E+02  -214494.862+488.664597*T-89.3284*T*LN(T);  
     1.50000E+03  N !
 FUNCTION UN_ASS 298.15 0; 300 N !
 
 TYPE_DEFINITION % SEQ *!
 DEFINE_SYSTEM_DEFAULT ELEMENT 2 !
 DEFAULT_COMMAND DEF_SYS_ELEMENT VA /- !


 PHASE GAS:G %  1  1.0  !
    CONSTITUENT GAS:G :H,H2,H2O1,O,O2,O3 :  !
$    CONSTITUENT GAS:G :H,H1O1,H1O2,H2,H2O1,H2O2,O,O2,O3 :  !

   PARAMETER G(GAS,H;0)  2.98150E+02  +F10447T#+R#*T*LN(1E-05*P);   
  6.00000E+03   N REF86 !
$   PARAMETER G(GAS,H1O1;0)  2.98150E+02  +F10666T#+R#*T*LN(1E-05*P);   
$  6.00000E+03   N REF93 !
$   PARAMETER G(GAS,H1O2;0)  2.98150E+02  +F10729T#+R#*T*LN(1E-05*P);   
$  6.00000E+03   N REF94 !
   PARAMETER G(GAS,H2;0)  2.98150E+02  +F10854T#+R#*T*LN(1E-05*P);   
  6.00000E+03   N REF95 !
   PARAMETER G(GAS,H2O1;0)  2.98150E+02  +F10963T#+R#*T*LN(1E-05*P);   
  6.00000E+03   N REF101 !
$   PARAMETER G(GAS,H2O2;0)  2.98150E+02  +F10983T#+R#*T*LN(1E-05*P);   
$  6.00000E+03   N REF102 !
   PARAMETER G(GAS,O;0)  2.98150E+02  +F13469T#+R#*T*LN(1E-05*P);   
  6.00000E+03   N REF116 !
   PARAMETER G(GAS,O2;0)  2.98150E+02  +F13839T#+R#*T*LN(1E-05*P);   
  6.00000E+03   N REF117 !
   PARAMETER G(GAS,O3;0)  2.98150E+02  +F14145T#+R#*T*LN(1E-05*P);   
  6.00000E+03   N REF118 !


 LIST_OF_REFERENCES
 NUMBER  SOURCE
   REF86  'H1<G> JANAF 1982; ASSESSMENT DATED 3/77 SGTE ** HYDROGEN <
         MONATOMIC GAS>'
   REF93  'H1O1<G> T.C.R.A.S. Class: 1'
   REF94  'H1O2<G> T.C.R.A.S. Class: 4'
   REF95  'H2<G> JANAF THERMOCHEMICAL TABLES SGTE ** HYDROGEN<G> STANDARD 
         STATE FROM CODATA KEY VALUES. CP FROM JANAF PUB. 3/61'
   REF101 'H2O1<G> T.C.R.A.S. Class: 1 WATER <GAS>'
   REF102 'H2O2<G> JANAF SECOND EDIT SGTE HYDROGEN PEROXIDE <GAS>'
   REF116 'O1<G> JANAF 1982; ASSESSMENT DATED 3/77 SGTE OXYGEN <MONATOMIC 
         GAS>'
   REF117 'O2<G> T.C.R.A.S. Class: 1 OXYGEN <DIATOMIC GAS>'
   REF118 'O3<G> T.C.R.A.S. Class: 4 OZONE <GAS>'
   REF128 'H2O1 T.C.R.A.S. Class: 4 WATER T.C.R.A.S. Class: 4 modified by 
         atd 12/9/94'
   REF129 'H2O2 THERMODATA 01/93 HYDROGEN PEROXIDE 28/01/93'
  ! 
 
