
$ Database file written 2021- 5- 4
$ From database: PURE5                   
 ELEMENT /-   ELECTRON_GAS              0.0000E+00  0.0000E+00  0.0000E+00!
 ELEMENT VA   VACUUM                    0.0000E+00  0.0000E+00  0.0000E+00!
 ELEMENT AC   1_MOLE_AC(AC_S)           0.0000E+00  0.0000E+00  0.0000E+00!
 ELEMENT AG   FCC_A1                    1.0787E+02  5.7446E+03  4.2551E+01!
 ELEMENT AL   FCC_A1                    2.6982E+01  4.5773E+03  2.8322E+01!
 ELEMENT AM   DHCP                      2.4306E+02  0.0000E+00  0.0000E+00!
 ELEMENT AR   1_MOLE_AR(GAS)            3.9948E+01  0.0000E+00  3.6982E+01!
 ELEMENT AS   RHOMBOHEDRAL_A7           7.4922E+01  0.0000E+00  0.0000E+00!
 ELEMENT AT   1/2_MOLE_AT2(AT2_S)       0.0000E+00  0.0000E+00  0.0000E+00!
 ELEMENT AU   FCC_A1                    1.9697E+02  6.0166E+03  4.7488E+01!
 ELEMENT B    BETA_RHOMBO_B             1.0811E+01  1.2220E+03  5.9000E+00!
 ELEMENT BA   BCC_A2                    1.3733E+02  0.0000E+00  0.0000E+00!
 ELEMENT BE   HCP_A3                    9.0122E+00  0.0000E+00  0.0000E+00!
 ELEMENT BI   RHOMBOHEDRAL_A7           2.0898E+02  6.4266E+03  5.6735E+01!
 ELEMENT BR   1/2_MOLE_BR2(LIQ)         7.9904E+01  1.2260E+04  7.6105E+01!
 ELEMENT C    GRAPHITE                  1.2011E+01  1.0540E+03  5.7400E+00!
 ELEMENT CA   FCC_A1                    4.0078E+01  6.1965E+03  4.1589E+01!
 ELEMENT CD   HCP_A3                    1.1241E+02  6.2509E+03  5.1798E+01!
 ELEMENT CE   FCC_A1                    1.4011E+02  0.0000E+00  0.0000E+00!
 ELEMENT CF   1_MOLE_CF(CF_S)           0.0000E+00  0.0000E+00  0.0000E+00!
 ELEMENT CL   1/2_MOLE_CL2(GAS)         3.5453E+01  4.5900E+03  1.1148E+02!
 ELEMENT CM   1_MOLE_CM(CM_S)           2.4700E+02  0.0000E+00  1.7200E+01!
 ELEMENT CO   HCP_A3                    5.8933E+01  0.0000E+00  0.0000E+00!
 ELEMENT CR   BCC_A2                    5.1996E+01  4.0500E+03  2.3560E+01!
 ELEMENT CS   BCC_A2                    1.3291E+02  7.7153E+03  8.5149E+01!
 ELEMENT CU   FCC_A1                    6.3546E+01  5.0041E+03  3.3150E+01!
 ELEMENT D    1/2_MOLE_D2_GAS           2.0140E+00  0.0000E+00  1.7310E+01!
 ELEMENT DY   HCP_A3                    1.6250E+02  0.0000E+00  0.0000E+00!
 ELEMENT ER   HCP_A3                    1.6726E+02  7.3923E+03  7.3178E+01!
 ELEMENT ES   1_MOLE_ES(ES_S)           0.0000E+00  0.0000E+00  0.0000E+00!
 ELEMENT EU   BCC_A2                    1.5197E+02  0.0000E+00  8.0793E+01!
 ELEMENT F    1/2_MOLE_F2(GAS)          1.8998E+01  4.4125E+03  1.0134E+02!
 ELEMENT FE   BCC_A2                    5.5847E+01  4.4890E+03  2.7280E+01!
 ELEMENT FM   1_MOLE_FM(FM_S)           0.0000E+00  0.0000E+00  0.0000E+00!
 ELEMENT FR   1_MOLE_FR(FR_S)           0.0000E+00  0.0000E+00  0.0000E+00!
 ELEMENT GA   ORTHORHOMBIC_GA           6.9723E+01  5.5731E+03  4.0828E+01!
 ELEMENT GD   HCP_A3                    1.5725E+02  0.0000E+00  0.0000E+00!
 ELEMENT GE   DIAMOND_A4                7.2610E+01  4.6275E+03  3.1087E+01!
 ELEMENT H    1/2_MOLE_H2(GAS)          1.0079E+00  4.2340E+03  6.5285E+01!
 ELEMENT HE   1_MOLE_HE(GAS)            4.0026E+00  0.0000E+00  3.0124E+01!
 ELEMENT HF   HCP_A3                    1.7849E+02  0.0000E+00  0.0000E+00!
 ELEMENT HG   LIQUID                    2.0059E+02  0.0000E+00  0.0000E+00!
 ELEMENT HO   HCP_A3                    1.6493E+02  0.0000E+00  0.0000E+00!
 ELEMENT I    1/2_MOLE_I2(I2_S)         1.2690E+02  6.5980E+03  1.1614E+02!
 ELEMENT IN   TETRAGONAL_A6             1.1482E+02  6.6100E+03  5.7650E+01!
 ELEMENT IR   FCC_A1                    1.9222E+02  5.2677E+03  3.5505E+01!
 ELEMENT K    BCC_A2                    3.9098E+01  7.0835E+03  6.4672E+01!
 ELEMENT KR   1_MOLE_KR(GAS)            8.3800E+01  0.0000E+00  3.9191E+01!
 ELEMENT LA   DHCP                      1.3891E+02  0.0000E+00  0.0000E+00!
 ELEMENT LI   BCC_A2                    6.9410E+00  4.6233E+03  2.9095E+01!
 ELEMENT LU   HCP_A3                    1.7497E+02  0.0000E+00  0.0000E+00!
 ELEMENT MG   HCP_A3                    2.4305E+01  4.9980E+03  3.2671E+01!
 ELEMENT MN   CBCC_A12                  5.4938E+01  4.9960E+03  3.2008E+01!
 ELEMENT MO   BCC_A2                    9.5940E+01  4.5890E+03  2.8560E+01!
 ELEMENT N    1/2_MOLE_N2(GAS)          1.4007E+01  4.3350E+03  9.5751E+01!
 ELEMENT NA   BCC_A2                    2.2990E+01  6.4475E+03  5.1447E+01!
 ELEMENT NB   BCC_A2                    9.2906E+01  5.2200E+03  3.6270E+01!
 ELEMENT ND   DHCP                      1.4424E+02  0.0000E+00  0.0000E+00!
 ELEMENT NE   1_MOLE_NE(GAS)            2.0179E+01  0.0000E+00  3.4947E+01!
 ELEMENT NI   FCC_A1                    5.8690E+01  4.7870E+03  2.9796E+01!
 ELEMENT NP   ORTHORHOMBIC_AC           2.3705E+02  0.0000E+00  0.0000E+00!
 ELEMENT O    1/2_MOLE_O2(GAS)          1.5999E+01  4.3410E+03  1.0252E+02!
 ELEMENT OS   HCP_A3                    1.9020E+02  0.0000E+00  3.2635E+01!
 ELEMENT P    WHITE_P                   3.0974E+01  0.0000E+00  0.0000E+00!
 ELEMENT PA   BCT_AA                    2.3104E+02  0.0000E+00  0.0000E+00!
 ELEMENT PB   FCC_A1                    2.0720E+02  6.8785E+03  6.4785E+01!
 ELEMENT PD   FCC_A1                    1.0642E+02  5.4685E+03  3.7823E+01!
 ELEMENT PM   1_MOLE_PM(PM_S)           0.0000E+00  0.0000E+00  0.0000E+00!
 ELEMENT PO   1_MOLE_PO(PO_S)           0.0000E+00  0.0000E+00  0.0000E+00!
 ELEMENT PR   DHCP                      1.4091E+02  0.0000E+00  0.0000E+00!
 ELEMENT PT   FCC_A1                    1.9508E+02  5.7237E+03  4.1631E+01!
 ELEMENT PU   ALPHA_PU                  2.4406E+02  0.0000E+00  0.0000E+00!
 ELEMENT RA   1_MOLE_RA(RA_S)           2.2603E+02  0.0000E+00  0.0000E+00!
 ELEMENT RB   BCC_A2                    8.5468E+01  7.4894E+03  7.6776E+01!
 ELEMENT RE   HCP_A3                    1.8621E+02  5.3555E+03  3.6526E+01!
 ELEMENT RH   FCC_A1                    1.0291E+02  4.9204E+03  3.1505E+01!
 ELEMENT RN   1_MOLE_RN(GAS)            2.2200E+02  0.0000E+00  4.2100E+01!
 ELEMENT RU   HCP_A3                    1.0107E+02  4.6024E+03  2.8535E+01!
 ELEMENT S    ORTHORHOMBIC_S            3.2066E+01  0.0000E+00  0.0000E+00!
 ELEMENT SB   RHOMBOHEDRAL_A7           1.2175E+02  5.8702E+03  4.5522E+01!
 ELEMENT SC   HCP_A3                    4.4956E+01  0.0000E+00  0.0000E+00!
 ELEMENT SE   HEXAGONAL_A8              7.8960E+01  5.5145E+03  4.1966E+01!
 ELEMENT SI   DIAMOND_A4                2.8085E+01  3.2175E+03  1.8820E+01!
 ELEMENT SM   RHOMBOHEDRAL_C19          1.5036E+02  0.0000E+00  0.0000E+00!
 ELEMENT SN   BCT_A5                    1.1871E+02  6.3220E+03  5.1195E+01!
 ELEMENT SR   FCC_A1                    8.7620E+01  0.0000E+00  0.0000E+00!
 ELEMENT T    1/2_MOLE_T2(GAS)          3.0160E+00  0.0000E+00  0.0000E+00!
 ELEMENT TA   BCC_A2                    1.8095E+02  5.6819E+03  4.1472E+01!
 ELEMENT TB   HCP_A3                    1.5893E+02  0.0000E+00  0.0000E+00!
 ELEMENT TC   HCP_A3                    9.7907E+01  0.0000E+00  0.0000E+00!
 ELEMENT TE   HEXAGONAL_A8              1.2760E+02  6.1212E+03  4.9497E+01!
 ELEMENT TH   FCC_A1                    2.3204E+02  0.0000E+00  0.0000E+00!
 ELEMENT TI   HCP_A3                    4.7880E+01  4.8100E+03  3.0648E+01!
 ELEMENT TL   HCP_A3                    2.0438E+02  6.8283E+03  6.4183E+01!
 ELEMENT TM   HCP_A3                    1.6893E+02  7.3973E+03  7.4015E+01!
 ELEMENT U    ORTHORHOMBIC_A20          2.3803E+02  0.0000E+00  0.0000E+00!
 ELEMENT V    BCC_A2                    5.0941E+01  4.5070E+03  3.0890E+01!
 ELEMENT W    BCC_A2                    1.8385E+02  4.9700E+03  3.2620E+01!
 ELEMENT XE   1_MOLE_XE(GAS)            1.3129E+02  0.0000E+00  4.0519E+01!
 ELEMENT Y    HCP_A3                    8.8906E+01  0.0000E+00  0.0000E+00!
 ELEMENT YB   FCC_A1                    1.7304E+02  0.0000E+00  0.0000E+00!
 ELEMENT ZN   HCP_A3                    6.5390E+01  5.6568E+03  4.1631E+01!
 ELEMENT ZR   HCP_A3                    9.1224E+01  5.5663E+03  3.9181E+01!
 
 SPECIES AT2                         AT2!
 SPECIES BR2                         BR2!
 SPECIES CL2                         CL2!
 SPECIES D2                          D2!
 SPECIES F2                          F2!
 SPECIES FR2                         FR2!
 SPECIES H2                          H2!
 SPECIES I2                          I2!
 SPECIES N2                          N2!
 SPECIES O2                          O2!
 SPECIES S2                          S2!
 SPECIES T2                          T2!
 SPECIES T3                          T3!
 SPECIES XE2                         XE2!
 
 
 FUNCTION GHSERAC   298.15 -7572.61519+100.596131*T-23.799*T*LN(T)
     -.00536685*T**2-20*T**(-1); 1323 Y
      -22258.8152+235.419006*T-42*T*LN(T); 5000 N !
 FUNCTION GGASAC1   298.15 +394647.668-60.6626295*T-19.162*T*LN(T)
     +.00210035*T**2-3.30984E-06*T**3-52110*T**(-1); 500 Y
      +404538.095-237.073904*T+8.974*T*LN(T)-.0333095*T**2
     +5.00220167E-06*T**3-701330*T**(-1); 900 Y
      +361650.543+216.644574*T-56.947*T*LN(T)+.0117893*T**2
     -7.96733333E-07*T**3+4533895*T**(-1); 1700 Y
      +407253.396-43.3903783*T-22.778*T*LN(T)+6.1595E-04*T**2
     -1.2757E-07*T**3-6712740*T**(-1); 3300 Y
      +448231.858-220.95179*T-.374*T*LN(T)-.0047424005*T**2
     +1.09546667E-07*T**3-20498780*T**(-1); 6000 N !
 FUNCTION GLIQAG    298.15 +GHSERAG#+11025.076-8.89102*T-1.033905E-20*T**7;
     1234.93 Y
      -3587.111+180.964656*T-33.472*T*LN(T); 3000 N !
 FUNCTION GHSERAG   298.15 -7209.512+118.202013*T-23.8463314*T*LN(T)
     -.001790585*T**2-3.98587E-07*T**3-12011*T**(-1); 1234.93 Y
      -15095.252+190.266404*T-33.472*T*LN(T)+1.411773E+29*T**(-9); 3000 N !
 FUNCTION GBCCAG    298.15 +GHSERAG#+3400-1.05*T; 3000 N !
 FUNCTION GHCPAG    298.15 +GHSERAG#+300+.3*T; 3000 N !
 FUNCTION GLIQAL    298.15 +GHSERAL#+11005.045-11.84185*T+7.9337E-20*T**7;
     933.47 Y
      -795.991+177.430209*T-31.748192*T*LN(T); 2900 N !
 FUNCTION GHSERAL   298.15 -7976.15+137.093038*T-24.3671976*T*LN(T)
     -.001884662*T**2-8.77664E-07*T**3+74092*T**(-1); 700 Y
      -11276.24+223.048446*T-38.5844296*T*LN(T)+.018531982*T**2
     -5.764227E-06*T**3+74092*T**(-1); 933.47 Y
      -11278.361+188.684136*T-31.748192*T*LN(T)-1.230622E+28*T**(-9); 2900 N
     !
 FUNCTION GBCCAL    298.15 +GHSERAL#+10083-4.813*T; 2900 N !
 FUNCTION GHCPAL    298.15 +GHSERAL#+5481-1.8*T; 2900 N !
 FUNCTION GLIQAM    298.15 +GHSERAM#+19910.7-14.1205*T; 3000 N !
 FUNCTION GFCCAM    298.15 -5224.899+99.204329*T-23.1377*T*LN(T)
     -.00294694*T**2-6.64773E-07*T**3-18507*T**(-1); 1018 Y
      -2935.853+73.800069*T-19.4406*T*LN(T)-.005418*T**2-3.75233E-07*T**3
     -260435*T**(-1); 1548.70 Y
      -22179.593+241.353807*T-41.84*T*LN(T); 3000 N !
 FUNCTION GBCCAM    298.15 -665.396+85.114354*T-21.1868*T*LN(T)
     -.0055995*T**2-5.41033E-07*T**3-30424*T**(-1); 999 Y
      -7800.332+63.93115*T-15.8832*T*LN(T)-.0190671*T**2+2.291117E-06*T**3
     +2287195*T**(-1); 1339 Y
      -13153.887+219.600832*T-39.748*T*LN(T); 1449 Y
      +70352.138-326.394464*T+33.413*T*LN(T)-.02736485*T**2
     +1.801717E-06*T**3-17379450*T**(-1); 2183.60 Y
      -16925.244+237.367028*T-41.84*T*LN(T); 3000 N !
 FUNCTION GHSERAM   298.15 -6639.201+89.645685*T-21.1868*T*LN(T)
     -.00559955*T**2-5.41038E-07*T**3-30424*T**(-1); 1329 Y
      -21702.938+241.107269*T-41.84*T*LN(T); 3000 N !
 FUNCTION GHSERAR   298.15 -6197.37857-15.6250184*T-20.78611*T*LN(T); 6000 N
     !
 FUNCTION GLIQAS    298.15 +GHSERAS#+24442.9-22.424679*T; 1200 N !
 FUNCTION GFCCAS    298.15 +GHSERAS#+24874-14.74*T; 1200 N !
 FUNCTION GBCCAS    298.15 +GHSERAS#+24874-16.1*T; 1200 N !
 FUNCTION GHCPAS    298.15 +GHSERAS#+24874-14*T; 1200 N !
 FUNCTION GHSERAS   298.15 -7270.447+122.211069*T-23.3144*T*LN(T)
     -.00271613*T**2+11600*T**(-1); 1090 Y
      -10454.913+163.457433*T-29.216037*T*LN(T); 1200 N !
 FUNCTION GHSERAT   298.15 +.5*GSOLAT2#; 1000 N !
 FUNCTION GGASAT1   298.15 +107251.654-47.8507551*T-20.786*T*LN(T); 2200 Y
      +106809.233-44.861522*T-21.185*T*LN(T)+1.413E-04*T**2
     -8.74833333E-09*T**3+68430*T**(-1); 6000 N !
 FUNCTION GGASAT2   298.15 +98748.2165-26.3818276*T-37.39*T*LN(T)
     -3.393E-04*T**2-7.28666667E-08*T**3+10425*T**(-1); 1400 Y
      +90660.8304+12.5493655*T-42.258*T*LN(T)+2.9515E-04*T**2
     +9.71333333E-09*T**3+2088660*T**(-1); 3200 Y
      +93624.973-9.03098507*T-39.433*T*LN(T)-5.026E-04*T**2
     +4.55333333E-08*T**3+2495695*T**(-1); 6000 N !
 FUNCTION GLIQAU    298.15 +GHSERAU#+12552-9.385866*T; 3200 N !
 FUNCTION GHSERAU   298.15 -6938.856+106.830098*T-22.75455*T*LN(T)
     -.00385924*T**2+3.79625E-07*T**3-25097*T**(-1); 929.40 Y
      -93586.481+1021.69543*T-155.706745*T*LN(T)+.08756015*T**2
     -1.1518713E-05*T**3+10637210*T**(-1); 1337.33 Y
      +314067.829-2016.37825*T+263.252259*T*LN(T)-.118216828*T**2
     +8.923844E-06*T**3-67999832*T**(-1); 1735.80 Y
      -12133.783+165.272524*T-30.9616*T*LN(T); 3200 N !
 FUNCTION GBCCAU    298.15 +GHSERAU#+4250-1.1*T; 3200 N !
 FUNCTION GHCPAU    298.15 +GHSERAU#+240.75+1.6*T; 3200 N !
 FUNCTION GLIQBB    298.15 +40723.275+86.843839*T-15.6641*T*LN(T)
     -.006864515*T**2+6.18878E-07*T**3+370843*T**(-1); 500 Y
      +41119.703+82.101722*T-14.9827763*T*LN(T)-.007095669*T**2
     +5.07347E-07*T**3+335484*T**(-1); 2348 Y
      +28842.012+200.94731*T-31.4*T*LN(T); 6000 N !
 FUNCTION GFCCBB    298.15 +GHSERBB#+43514-12.217*T; 6000 N !
 FUNCTION GBCCBB    298.15 +GHSERBB#+43514-12.217*T; 3000 N !
 FUNCTION GHCPBB    298.15 +GHSERBB#+50208-9.706*T; 6000 N !
 FUNCTION GHSERBB   298.15 -7735.284+107.111864*T-15.6641*T*LN(T)
     -.006864515*T**2+6.18878E-07*T**3+370843*T**(-1); 1100 Y
      -16649.474+184.801744*T-26.6047*T*LN(T)-7.9809E-04*T**2-2.556E-08*T**3
     +1748270*T**(-1); 2348 Y
      -36667.582+231.336244*T-31.5957527*T*LN(T)-.00159488*T**2
     +1.34719E-07*T**3+11205883*T**(-1); 3000 Y
      -21530.653+222.396264*T-31.4*T*LN(T); 6000 N !
 FUNCTION GLIQBA    298.15 -9738.988+229.540143*T-43.4961089*T*LN(T)
     -.002346416*T**2+9.91223E-07*T**3+723016*T**(-1); 1000 Y
      -7381.093+235.49642*T-45.103*T*LN(T)+.002154*T**2+2.7E-11*T**3
     -365*T**(-1); 2995 Y
      +11940.282+132.212*T-32.2*T*LN(T); 4000 N !
 FUNCTION GFCCBA    298.15 +GHSERBA#+1800+.6*T; 4000 N !
 FUNCTION GHSERBA   298.15 -17685.226+233.78606*T-42.889*T*LN(T)
     -.0018314*T**2-9.5E-11*T**3+705880*T**(-1); 1000 Y
      -64873.614+608.188389*T-94.2824199*T*LN(T)+.019504772*T**2
     -1.051353E-06*T**3+8220192*T**(-1); 2995 Y
      +8083.889+136.780042*T-32.2*T*LN(T); 4000 N !
 FUNCTION GHCPBA    298.15 +GHSERBA#+2000+1.3*T; 4000 N !
 FUNCTION GLIQBE    298.15 +7511.838+120.362788*T-20.0497038*T*LN(T)
     -.004821347*T**2+4.15958E-07*T**3+281044*T**(-1); 1560 Y
      +5364.713+156.961141*T-25.486*T*LN(T)-.0010572*T**2-1.117E-09*T**3
     +15920*T**(-1); 3000 N !
 FUNCTION GFCCBE    298.15 +GHSERBE#+6349-1.085*T; 3000 N !
 FUNCTION GBCCBE    298.15 -1076.057+109.411712*T-17.1727841*T*LN(T)
     -.008672487*T**2+9.61427E-07*T**3+242309*T**(-1); 1527 Y
      -6970.378+196.411689*T-30*T*LN(T); 1560 Y
      -2609.973+178.131722*T-27.7823769*T*LN(T)-1.03629E-04*T**2
     -5.9331E-08*T**3-1250847*T**(-1); 3000 N !
 FUNCTION GHSERBE   298.15 -8553.651+137.560219*T-21.204*T*LN(T)
     -.00284715*T**2-1.60413E-07*T**3+293690*T**(-1); 1527 Y
      -121305.858+772.405844*T-103.9843*T*LN(T)+.021078651*T**2
     -1.119065E-06*T**3+27251743*T**(-1); 3000 N !
 FUNCTION GLIQBI    298.15 +GHSERBI#+11246.017-20.636399*T-5.9608E-19*T**7;
     544.55 Y
      +40629.667-400.415652*T+49.678*T*LN(T)-.0730245*T**2
     +1.3052833E-05*T**3-3544705*T**(-1); 800 Y
      +250.689+162.14485*T-36.041*T*LN(T)+.0074641*T**2-1.05047E-06*T**3
     +5175*T**(-1); 1200 Y
      +3755.434+103.960336*T-27.196*T*LN(T); 3000 N !
 FUNCTION GFCCBI    298.15 +GHSERBI#+9900-12.5*T; 3000 N !
 FUNCTION GBCCBI    298.15 +GHSERBI#+11297-13.9*T; 3000 N !
 FUNCTION GHCPBI    298.15 +GHSERBI#+9900-11.8*T; 3000 N !
 FUNCTION GHSERBI   298.15 -7817.776+128.418925*T-28.4096529*T*LN(T)
     +.012338888*T**2-8.381598E-06*T**3; 544.55 Y
      +29293.369-379.605174*T+49.678*T*LN(T)-.0730245*T**2
     +1.3052833E-05*T**3-3544705*T**(-1)+1.66309E+25*T**(-9); 800 Y
      -11085.609+182.955328*T-36.041*T*LN(T)+.0074641*T**2-1.05047E-06*T**3
     +5175*T**(-1)+1.66309E+25*T**(-9); 1200 Y
      -7580.864+124.770814*T-27.196*T*LN(T)+1.66309E+25*T**(-9); 3000 N !
 FUNCTION GGASBR2   298.15 +19077.8949+9.66580068*T-37.98897*T*LN(T)
     +3.824891E-04*T**2-1.125315E-07*T**3+79565.75*T**(-1); 2100 Y
      +61807.3693-219.344992*T-8.183614*T*LN(T)-.008666065*T**2
     +3.90366833E-07*T**3-11184485*T**(-1); 4300 Y
      -203404.068+619.894219*T-109.6234*T*LN(T)+.008605745*T**2
     -1.61313517E-07*T**3+1.1921565E+08*T**(-1); 6000 N !
 FUNCTION GHSERBR   298.15 +.5*GLIQBR2#; 6000 N !
 FUNCTION GLIQCC    298.15 +GHSERCC#+117369-24.63*T; 6000 N !
 FUNCTION GHSERCC   298.15 -17368.441+170.73*T-24.3*T*LN(T)-4.723E-04*T**2
     +2562600*T**(-1)-2.643E+08*T**(-2)+1.2E+10*T**(-3); 6000 N !
 FUNCTION GDIACC    298.15 -16359.441+175.61*T-24.31*T*LN(T)-4.723E-04*T**2
     +2698000*T**(-1)-2.61E+08*T**(-2)+1.11E+10*T**(-3); 6000 N !
 FUNCTION GGASC1    298.15 +710430.933-17.7062919*T-20.97529*T*LN(T)
     +1.998237E-04*T**2-3.34617167E-08*T**3+1680.6515*T**(-1); 3400 Y
      +698015.711+2.57175186*T-23.05071*T*LN(T)-6.04604E-05*T**2
     +6.74291667E-10*T**3+8558245*T**(-1); 10000 Y
      +736197.571-32.7975309*T-19.44529*T*LN(T)-1.5396035E-04*T**2
     -6.15402167E-11*T**3-56188350*T**(-1); 20000 N !
 FUNCTION GLIQCA    298.15 +5844.846+62.4838*T-16.3138*T*LN(T)
     -.01110455*T**2-133574*T**(-1); 500 Y
      +7838.856+18.2979*T-8.9874787*T*LN(T)-.02266537*T**2+3.338303E-06*T**3
     -230193*T**(-1); 1115 Y
      -2654.938+188.9223*T-35*T*LN(T); 3001 N !
 FUNCTION GHSERCA   298.15 -4955.062+72.794266*T-16.3138*T*LN(T)
     -.01110455*T**2-133574*T**(-1); 1115 Y
      -107304.428+799.982066*T-114.292247*T*LN(T)+.023733814*T**2
     -1.2438E-06*T**3+18245540*T**(-1); 3000 Y
      -3703.12+192.63995*T-35*T*LN(T); 3001 N !
 FUNCTION GBCCCA    298.15 -7020.852+142.970155*T-28.2541*T*LN(T)
     +.0072326*T**2-4.500217E-06*T**3+60578*T**(-1); 716 Y
      +1640.475+1.999694*T-6.276*T*LN(T)-.0161921*T**2-523000*T**(-1); 1115 Y
      -142331.096+1023.54905*T-143.872698*T*LN(T)+.032543127*T**2
     -1.704079E-06*T**3+25353771*T**(-1); 3000 Y
      +321.63+189.433057*T-35*T*LN(T); 3001 N !
 FUNCTION GHCPCA    298.15 +GHSERCA#+500+.7*T; 3001 N !
 FUNCTION GLIQCD    298.15 -955.025+89.209282*T-22.0442408*T*LN(T)
     -.006273908*T**2-6966*T**(-1); 400 Y
      +21716.884-371.046869*T+53.1313898*T*LN(T)-.115159917*T**2
     +2.8899781E-05*T**3-1271815*T**(-1); 594.22 Y
      -3252.303+138.251107*T-29.7064*T*LN(T); 1600 N !
 FUNCTION GFCCCD    298.15 +GHSERCD#+892.3-.92*T; 1600 N !
 FUNCTION GBCCCD    298.15 +GHSERCD#+1000; 1600 N !
 FUNCTION GHSERCD   298.15 -7083.469+99.506198*T-22.0442408*T*LN(T)
     -.006273908*T**2-6966*T**(-1); 594.22 Y
      -20064.971+256.812233*T-45.1611543*T*LN(T)+.008832011*T**2
     -8.99604E-07*T**3+1241290*T**(-1); 1500 Y
      -9027.489+148.20548*T-29.7064*T*LN(T); 1600 N !
 FUNCTION GLIQCE    298.15 +4117.865-11.423898*T-7.5383948*T*LN(T)
     -.02936407*T**2+4.827734E-06*T**3-198834*T**(-1); 1000 Y
      -6730.605+183.023193*T-37.6978*T*LN(T); 4000 N !
 FUNCTION GHSERCE   298.15 -7160.519+84.23022*T-22.3664*T*LN(T)
     -.0067103*T**2-3.20773E-07*T**3-18117*T**(-1); 1000 Y
      -79678.506+659.4604*T-101.32248*T*LN(T)+.026046487*T**2
     -1.930297E-06*T**3+11531707*T**(-1); 2000 Y
      -14198.639+190.370192*T-37.6978*T*LN(T); 4000 N !
 FUNCTION GBCCCE    298.15 -1354.69-5.21501*T-7.7305867*T*LN(T)
     -.029098402*T**2+4.784299E-06*T**3-196303*T**(-1); 1000 Y
      -12101.106+187.449688*T-37.6142*T*LN(T); 1072 Y
      -11950.375+186.333811*T-37.4627992*T*LN(T)-5.7145E-05*T**2
     +2.348E-09*T**3-25897*T**(-1); 4000 N !
 FUNCTION GHCPCE    298.15 +GHSERCE#+300; 4000 N !
 FUNCTION GHSERCF   298.15 -8469.90215+104.280719*T-27.49949*T*LN(T)
     +7.74221E-04*T**2-3.00430667E-06*T**3+26908.455*T**(-1); 700 Y
      -8395.62854+100.938938*T-26.83568*T*LN(T)-.0012952475*T**2
     -2.20727333E-06*T**3; 1000 Y
      +38885.0956-780.991201*T+110.0211*T*LN(T)-.13316665*T**2
     +1.89404E-05*T**3; 1173 N !
 FUNCTION GHSERCL   298.15 +.5*GGASCL2#; 6000 N !
 FUNCTION GHSERCM   298.15 -7869.70506+98.7537088*T-25.104*T*LN(T)
     -.00433044*T**2; 1550 Y
      -10436.223+155.168758*T-33.472*T*LN(T); 1618 Y
      -21267.7622+211.327719*T-40.1664*T*LN(T); 4000 N !
 FUNCTION GGASCM1   298.15 +377291.101+12.0602152*T-31.00442*T*LN(T)
     -.001280547*T**2+1.43695533E-06*T**3+129049.4*T**(-1); 700 Y
      +380454.248-.173822933*T-30.03214*T*LN(T)+.0034346335*T**2
     -4.32347E-07*T**3-380009.4*T**(-1); 1700 Y
      +380329.187-11.3576458*T-28.24452*T*LN(T)+.0018205105*T**2
     -2.34110667E-07*T**3; 4200 Y
      +837692.339-1379.89321*T+135.9805*T*LN(T)-.02460472*T**2
     +5.694885E-07*T**3-2.4083855E+08*T**(-1); 6000 N !
 FUNCTION GLIQCO    298.15 +GHSERCO#+15085.037-8.931932*T-2.19801E-21*T**7;
     1768 Y
      -846.61+243.599944*T-40.5*T*LN(T); 6000 N !
 FUNCTION GFCCCO    298.15 +GHSERCO#+427.591-.615248*T; 6000 N !
 FUNCTION GBCCCO    298.15 +GHSERCO#+2938-.7138*T; 6000 N !
 FUNCTION GHSERCO   298.15 +310.241+133.36601*T-25.0861*T*LN(T)
     -.002654739*T**2-1.7348E-07*T**3+72527*T**(-1); 1768 Y
      -17197.666+253.28374*T-40.5*T*LN(T)+9.3488E+30*T**(-9); 6000 N !
 FUNCTION GLIQCR    298.15 +GHSERCR#+24339.955-11.420225*T+2.37615E-21*T**7;
     2180 Y
      -16459.984+335.616316*T-50*T*LN(T); 6000 N !
 FUNCTION GFCCCR    298.15 +GHSERCR#+7284+.163*T; 6000 N !
 FUNCTION GHSERCR   298.15 -8856.94+157.48*T-26.908*T*LN(T)+.00189435*T**2
     -1.47721E-06*T**3+139250*T**(-1); 2180 Y
      -34869.344+344.18*T-50*T*LN(T)-2.88526E+32*T**(-9); 6000 N !
 FUNCTION GHCPCR    298.15 +GHSERCR#+4438; 6000 N !
 FUNCTION GLIQCS    200 +GHSERCS#+2091.141-6.931035*T-3.56867E-18*T**7;
     301.59 Y
      -11454.038+211.728844*T-46.7273304*T*LN(T)+.02043269*T**2
     -4.074846E-06*T**3+181528*T**(-1); 2000 N !
 FUNCTION GFCCCS    200 +GHSERCS#+500+1.3*T; 2000 N !
 FUNCTION GHSERCS   200 -17373.82+436.899787*T-90.5212584*T*LN(T)
     +.2029422*T**2-1.27907669E-04*T**3+245245*T**(-1); 301.59 Y
      -13553.817+218.689955*T-46.7273304*T*LN(T)+.02043269*T**2
     -4.074846E-06*T**3+181528*T**(-1)+7.8016E+21*T**(-9); 2000 N !
 FUNCTION GHCPCS    200 +GHSERCS#+500+2*T; 2000 N !
 FUNCTION GLIQCU    298.15 +GHSERCU#+12964.735-9.511904*T-5.8489E-21*T**7;
     1357.77 Y
      -46.545+173.881484*T-31.38*T*LN(T); 3200 N !
 FUNCTION GHSERCU   298.15 -7770.458+130.485235*T-24.112392*T*LN(T)
     -.00265684*T**2+1.29223E-07*T**3+52478*T**(-1); 1357.77 Y
      -13542.026+183.803828*T-31.38*T*LN(T)+3.64167E+29*T**(-9); 3200 N !
 FUNCTION GBCCCU    298.15 +GHSERCU#+4017-1.255*T; 3200 N !
 FUNCTION GHCPCU    298.15 +GHSERCU#+600+.2*T; 3200 N !
 FUNCTION GHSERD1   298.15 +215521.121+15.8679816*T-20.78611*T*LN(T); 6000 N
     !
 FUNCTION GHSERD2   298.15 -8456.47704+47.5447764*T-28.79321*T*LN(T)
     +5.47726E-04*T**2-6.60612667E-07*T**3-17075.99*T**(-1); 900 Y
      -9253.29324+36.5549968*T-26.69957*T*LN(T)-.003286203*T**2
     +1.54000683E-07*T**3+326416.2*T**(-1); 2700 Y
      -486.276998+31.4394622*T-26.65651*T*LN(T)-.002130387*T**2
     +4.763655E-08*T**3-5629765*T**(-1); 6200 Y
      -229545.933+430.175622*T-71.05596*T*LN(T)+.0014570765*T**2
     -7.21575833E-10*T**3+2.0713865E+08*T**(-1); 10000 Y
      -111522.548+359.343028*T-64.5573*T*LN(T)+.0017405465*T**2
     -1.28457033E-08*T**3-37551550*T**(-1); 19000 Y
      +667049.587-289.343336*T+1.813887*T*LN(T)-7.82167E-04*T**2
     +5.17027667E-09*T**3-1.757773E+09*T**(-1); 20000 N !
 FUNCTION GLIQDY    100 +5259.45264+94.7630477*T-26.3917167*T*LN(T)
     -7.61683657E-04*T**2-5.86914125E-07*T**3+4010.90565*T**(-1); 1000 Y
      +300126.971-2519.78614*T+341.302578*T*LN(T)-.196153225*T**2
     +1.76197799E-05*T**3-43071677.5*T**(-1); 1685.15 Y
      -21864.7344+282.205014*T-49.9151*T*LN(T); 3000 N !
 FUNCTION GBCCDY    100 -6428.98566+101.740796*T-26.3917167*T*LN(T)
     -7.61683657E-04*T**2-5.86914125E-07*T**3+4010.90565*T**(-1); 1000 Y
      +327500.062-2868.04585*T+391.515418*T*LN(T)-.224042148*T**2
     +2.04076075E-05*T**3-48652656.5*T**(-1); 1654.15 Y
      -33708.7949+291.409631*T-50.208*T*LN(T); 1685.15 Y
      -40775.4966+330.318068*T-55.2811171*T*LN(T)+.0015254673*T**2
     -7.7437116E-08*T**3+1776589.32*T**(-1); 3000 N !
 FUNCTION GHSERDY   100 -7937.16586+102.307412*T-26.3917167*T*LN(T)
     -7.61683657E-04*T**2-5.86914125E-07*T**3+4010.90565*T**(-1); 1000 Y
      -13733.328+214.012934*T-43.8283359*T*LN(T)+.0166909801*T**2
     -3.49702836E-06*T**3+.0173619874*T**(-1); 1654.15 Y
      -404681.371+2032.1415*T-272.123952*T*LN(T)+.0578301681*T**2
     -2.76169148E-06*T**3+1.09616238E+08*T**(-1); 3000 N !
 FUNCTION GLIQER    298.15 +10892.966+106.457118*T-28.3846744*T*LN(T)
     +9.95792E-04*T**2-9.52557E-07*T**3+9581*T**(-1); 500 Y
      +17912.678+.355564*T-12.0761776*T*LN(T)-.014414687*T**2
     +1.316517E-06*T**3-528122*T**(-1); 1802 Y
      +747.131+187.623024*T-38.702*T*LN(T); 3200 N !
 FUNCTION GBCCER    298.15 +GHSERER#+4600-2.494353*T; 3200 N !
 FUNCTION GHSERER   298.15 -8489.136+116.698964*T-28.3846744*T*LN(T)
     +9.95792E-04*T**2-9.52557E-07*T**3+9581*T**(-1); 1802 Y
      -445688.206+2233.10212*T-298.135131*T*LN(T)+.065950553*T**2
     -3.041405E-06*T**3+1.23973199E+08*T**(-1); 3200 N !
 FUNCTION GHSERES   298.15 -9603.70094+106.74523*T-28.99*T*LN(T)
     -9.010025E-04*T**2-2.21979333E-07*T**3+129467.6*T**(-1); 1133 Y
      -16595.0333+167.712355*T-36.95309*T*LN(T); 1500 N !
 FUNCTION GGASES1   298.15 +126680.446-61.4481604*T-20.83157*T*LN(T)
     +1.038889E-04*T**2-3.12514333E-08*T**3; 1300 N !
 FUNCTION GLIQEU    298.15 -1482.46+128.661522*T-32.8418896*T*LN(T)
     +.00931735*T**2-4.006564E-06*T**3+102717*T**(-1); 400 Y
      +10972.726-103.688201*T+4.3501554*T*LN(T)-.036811218*T**2
     +5.452934E-06*T**3-646908*T**(-1); 1095 Y
      -6890.641+175.517247*T-38.11624*T*LN(T); 1901 N !
 FUNCTION GHSEREU   298.15 -9864.965+135.836737*T-32.8418896*T*LN(T)
     +.00931735*T**2-4.006564E-06*T**3+102717*T**(-1); 1095 Y
      -287423.476+2174.73304*T-309.357101*T*LN(T)+.114530917*T**2
     -8.809866E-06*T**3+48455305*T**(-1); 1900 Y
      -13663.125+182.113799*T-38.11624*T*LN(T); 1901 N !
 FUNCTION GHSERFF   298.15 +.5*GGASF2#; 6000 N !
 FUNCTION GLIQFE    298.15 +GHSERFE#+12040.17-6.55843*T-3.67516E-21*T**7;
     1811 Y
      -10838.83+291.302*T-46*T*LN(T); 6000 N !
 FUNCTION GFCCFE    298.15 -236.7+132.416*T-24.6643*T*LN(T)-.00375752*T**2
     -5.8927E-08*T**3+77359*T**(-1); 1811 Y
      -27097.3963+300.252559*T-46*T*LN(T)+2.78854E+31*T**(-9); 6000 N !
 FUNCTION GHSERFE   298.15 +1225.7+124.134*T-23.5143*T*LN(T)-.00439752*T**2
     -5.8927E-08*T**3+77359*T**(-1); 1811 Y
      -25383.581+299.31255*T-46*T*LN(T)+2.29603E+31*T**(-9); 6000 N !
 FUNCTION GHCPFE    298.15 -2480.08+136.725*T-24.6643*T*LN(T)-.00375752*T**2
     -5.8927E-08*T**3+77359*T**(-1); 1811 Y
      -29340.776+304.561559*T-46*T*LN(T)+2.78854E+31*T**(-9); 6000 N !
 FUNCTION GHSERFM   298.15 -7435.38424+71.2921434*T-23.12029*T*LN(T)
     -.006376645*T**2+4.673305E-07*T**3; 1000 N !
 FUNCTION GGASFM1   298.15 +136850.723-58.060785*T-21.16418*T*LN(T)
     +.0010578665*T**2-4.90770333E-07*T**3; 1000 N !
 FUNCTION GHSERFR   298.15 -2896.15699+22.135833*T-18.686*T*LN(T)
     -.00552445*T**2+5.66666667E-11*T**3-471995*T**(-1); 2000 N !
 FUNCTION GGASFR1   298.15 +66719.3128-41.3859151*T-21.013*T*LN(T)
     +2.238E-04*T**2-3.54933333E-08*T**3+5020*T**(-1); 1900 Y
      +59158.2746+20.6311478*T-29.573*T*LN(T)+.0041483005*T**2
     -3.5509E-07*T**3+1031265*T**(-1); 3800 Y
      +447653.276-1219.99948*T+120.623*T*LN(T)-.0218429*T**2
     +4.94483333E-07*T**3-1.886411E+08*T**(-1); 6000 N !
 FUNCTION GGASFR2   298.15 +98312.5778-122.431698*T-24.748*T*LN(T)
     -.0260224*T**2+7.70755833E-06*T**3-121475*T**(-1); 600 Y
      +72099.8189+267.174378*T-84.831*T*LN(T)+.0351034*T**2-3.9412E-06*T**3
     +2019320*T**(-1); 1400 Y
      +198967.692-664.832058*T+42.754*T*LN(T)-.02224225*T**2
     +9.24891667E-07*T**3-21739545*T**(-1); 2300 Y
      +105542.311-327.058899*T+1.646*T*LN(T)-.0159264*T**2+8.78035E-07*T**3
     +14080215*T**(-1); 3500 Y
      -169012.039+764.904246*T-134.43*T*LN(T)+.0135291*T**2
     -3.01303333E-07*T**3+1.1556265E+08*T**(-1); 6000 N !
 FUNCTION GLIQGA    200 +GHSERGA#+5491.298-18.073995*T-7.0171E-17*T**7;
     302.91 Y
      -1389.188+114.049043*T-26.0692906*T*LN(T)+1.506E-04*T**2
     -4.0173E-08*T**3-118332*T**(-1); 4000 N !
 FUNCTION GFCCGA    200 +GHSERGA#+3800-10.2*T; 4000 N !
 FUNCTION GBCCGA    200 +GHSERGA#+4500-11.7*T; 4000 N !
 FUNCTION GHCPGA    200 +GHSERGA#+4500-9.5*T; 4000 N !
 FUNCTION GHSERGA   200 -21312.331+585.263691*T-108.228783*T*LN(T)
     +.227155636*T**2-1.18575257E-04*T**3+439954*T**(-1); 302.91 Y
      -7055.643+132.73019*T-26.0692906*T*LN(T)+1.506E-04*T**2
     -4.0173E-08*T**3-118332*T**(-1)+1.64547E+23*T**(-9); 4000 N !
 FUNCTION GLIQGD    100 +6225.4407+88.8092103*T-24.7214131*T*LN(T)
     -.00285240521*T**2-3.14674076E-07*T**3-8665.73348*T**(-1); 1000 Y
      +146262.037-1208.70685*T+159.352082*T*LN(T)-.108247135*T**2
     +1.06945505E-05*T**3-19678357*T**(-1); 1508.15 Y
      -5397.314+192.336215*T-38.5075*T*LN(T); 3600 N !
 FUNCTION GFCCGD    200 +GHSERGD#+500; 3600 N !
 FUNCTION GBCCGD    100 -3600.77684+95.0191641*T-24.721413*T*LN(T)
     -.00285240521*T**2-3.14674076E-07*T**3-8665.73348*T**(-1); 1000 Y
      +152792.743-1349.58873*T+180.097094*T*LN(T)-.119550229*T**2
     +1.17915728E-05*T**3-22038836*T**(-1); 1508.15 Y
      -15783.7618+202.222183*T-38.960425*T*LN(T); 1586.15 Y
      -19850.5562+224.818035*T-41.904333*T*LN(T)+8.58222759E-04*T**2
     -3.77570269E-08*T**3+995428.573*T**(-1); 3600 N !
 FUNCTION GHSERGD   200 -6834.5855+97.13101*T-24.7214131*T*LN(T)
     -.00285240521*T**2-3.14674076E-07*T**3-8665.73348*T**(-1); 1000 Y