
$ Database file written 2013- 3-10
$ From database: USER                    
 ELEMENT /-   ELECTRON_GAS              0.0000E+00  0.0000E+00  0.0000E+00!
 ELEMENT VA   VACUUM                    0.0000E+00  0.0000E+00  0.0000E+00!
 ELEMENT O    GAS_1/2_MOLE_O2           1.5999E+01  4.3410E+03  1.0252E+02!
 ELEMENT U    ORTHORHOMBIC_A20          2.3803E+02  6.3640E+03  5.0200E+01!
 
 SPECIES O-2                         O1/-2!
 SPECIES O2                          O2!
 SPECIES O3                          O3!
 SPECIES U+3                         U1/+3!
 SPECIES U+4                         U1/+4!
 SPECIES U+5                         U1/+5!
 SPECIES UO                          O1U1!
 SPECIES UO2                         O2U1!
 SPECIES UO3                         O3U1!
 
 FUNCTION OGAS      298.15 +243206.494-20.8612587*T-21.01555*T*LN(T)
     +1.2687055E-04*T**2-1.23131283E-08*T**3-42897.09*T**(-1);  2950     Y
      +252301.423-52.0847285*T-17.21188*T*LN(T)-5.413565E-04*T**2
     +7.64520667E-09*T**3-3973170.5*T**(-1); 6000 N !
 FUNCTION O2GAS     298.15 -6960.69252-51.1831473*T-22.25862*T*LN(T)
     -.01023867*T**2+1.339947E-06*T**3-76749.55*T**(-1);  9.00000E+02  Y
      -13136.0172+24.743296*T-33.55726*T*LN(T)-.0012348985*T**2
     +1.66943333E-08*T**3+539886*T**(-1);  3.70000E+03  Y
      +14154.6461-51.4854586*T-24.47978*T*LN(T)-.002634759*T**2
     +6.01544333E-08*T**3-15120935*T**(-1);  9.60000E+03  Y
      -314316.628+515.068037*T-87.56143*T*LN(T)+.0025787245*T**2
     -1.878765E-08*T**3+2.9052515E+08*T**(-1);  1.85000E+04  Y
      -108797.175+288.483019*T-63.737*T*LN(T)+.0014375*T**2-9E-09*T**3
     +.25153895*T**(-1);  2.00000E+04  N !
 FUNCTION O3GAS     298.15 +130696.944-37.9096651*T-27.58118*T*LN(T)
     -.02763076*T**2+4.60539333E-06*T**3+99530.45*T**(-1);  4.00000E+02  Y
      +114760.623+176.626736*T-60.10286*T*LN(T)+.00206456*T**2
     -5.17486667E-07*T**3+1572175*T**(-1);  1.30000E+03  Y
      +49468.3958+710.094819*T-134.3696*T*LN(T)+.039707355*T**2
     -4.10457667E-06*T**3+12362250*T**(-1);  2.10000E+03  Y
      +866367.075-3566.80563*T+421.2001*T*LN(T)-.1284109*T**2
     +5.44768833E-06*T**3-2.1304835E+08*T**(-1);  2.80000E+03  Y
      +409416.384-1950.70834*T+223.4437*T*LN(T)-.0922361*T**2
     +4.306855E-06*T**3-21589870*T**(-1);  3.50000E+03  Y
      -1866338.6+6101.13383*T-764.8435*T*LN(T)+.09852775*T**2
     -2.59784667E-06*T**3+9.610855E+08*T**(-1);  4.90000E+03  Y
      +97590.0432+890.79836*T-149.9608*T*LN(T)+.01283575*T**2
     -3.555105E-07*T**3-2.1699975E+08*T**(-1); 6000 N !
 FUNCTION GHSEROO   298.15 -3480.87-25.503038*T-11.136*T*LN(T)
     -.005098888*T**2+6.61846E-07*T**3-38365*T**(-1);  1.00000E+03  Y
      -6568.763+12.65988*T-16.8138*T*LN(T)-5.95798E-04*T**2+6.781E-09*T**3
     +262905*T**(-1);  3.30000E+03  Y
      -13986.728+31.259625*T-18.9536*T*LN(T)-4.25243E-04*T**2
     +1.0721E-08*T**3+4383200*T**(-1); 6000 N !
 FUNCTION GASU      298.15 +523164.925+13.603288*T-32.513*T*LN(T)
     +.01126565*T**2-2.43328E-06*T**3+151130*T**(-1);  9.00000E+02  Y
      +541065.13-173.693179*T-5.336*T*LN(T)-.00723615*T**2-4.306E-08*T**3
     -2072960*T**(-1);  2.10000E+03  Y
      +605452.662-512.542339*T+38.748*T*LN(T)-.0208079*T**2+7.5045E-07*T**3
     -19886375*T**(-1);  4.50000E+03  Y
      -41328.1657+1300.29089*T-176.856*T*LN(T)+.0113664*T**2
     -1.56178333E-07*T**3+3.4654725E+08*T**(-1);  9.20000E+03  Y
      +410972.67+537.324611*T-92.012*T*LN(T)+.0043702*T**2
     -4.90033333E-08*T**3-99572850*T**(-1);  1.20000E+04  N !
 FUNCTION GLIQUU    298.15 +3947.766+120.631251*T-26.9182*T*LN(T)
     +.00125156*T**2-4.42605E-06*T**3+38568*T**(-1);  9.55000E+02  Y
      -10166.3+281.797193*T-48.66*T*LN(T);  3.00000E+03  N !
 FUNCTION GFCCUU    298.15 -3407.734+130.955151*T-26.9182*T*LN(T)
     +.00125156*T**2-4.42605E-06*T**3+38568*T**(-1);  9.55000E+02  Y
      -17521.8+292.121093*T-48.66*T*LN(T);  3.00000E+03  N !
 FUNCTION GBCCUU    298.15 -752.767+131.5381*T-27.5152*T*LN(T)
     -.00835595*T**2+9.67907E-07*T**3+204611*T**(-1);  1.04900E+03  Y
      -4698.365+202.685635*T-38.2836*T*LN(T);  3.00000E+03  N !
 FUNCTION GHSERUU   298.15 -8407.734+130.955151*T-26.9182*T*LN(T)
     +.00125156*T**2-4.42605E-06*T**3+38568*T**(-1);  9.55000E+02  Y
      -22521.8+292.121093*T-48.66*T*LN(T);  3.00000E+03  N !
 FUNCTION GTETUU    298.15 -5156.136+106.976316*T-22.841*T*LN(T)
     -.01084475*T**2+2.7889E-08*T**3+81944*T**(-1);  9.41500E+02  Y
      -14327.309+244.16802*T-42.9278*T*LN(T);  3.00000E+03  N !
 FUNCTION UOGAS     298.15 +7058.467+16.66929*T-38.48092*T*LN(T)
     -.01650935*T**2+6.74198333E-06*T**3-1.22913333E-09*T**4+257767*T**(-1); 
      1.30000E+03  Y
      +10617.823+76.4054808*T-50.04939*T*LN(T)+.0090553*T**2
     -2.0628666E-06*T**3+1.42865E-10*T**4-1254735*T**(-1);  4.00000E+03  N !
 FUNCTION UO2GAS    298.15 -477055.313+30.72281*T-44.35744*T*LN(T)
     -.018817925*T**2+3.85927167E-06*T**3-4.58556667E-10*T**4
     +37425.465*T**(-1);  1.50000E+03  Y
      -483042.479+128.845816*T-59.57586*T*LN(T)-.0026962*T**2
     -1.57719683E-08*T**3+8.57269167E-12*T**4+315972.55*T**(-1);  4000  N !
 FUNCTION UO3GAS    298.15 -813296.059+27.9636972*T-46.69199*T*LN(T)
     -.047347135*T**2+1.58195017E-05*T**3-2.84654167E-09*T**4
     +139692.15*T**(-1);  9.00000E+02  Y
      -827058.826+248.932783*T-81.70962*T*LN(T)-.001004739*T**2
     +1.85084167E-07*T**3-1.8022825E-11*T**4+1290177.5*T**(-1);  4000      N !
 FUNCTION LOWLIQ    298.15 +G4OV#+79775-25.0114*T-2.62269566E-21*T**7;
       2.60000E+03  N !
 FUNCTION O2ULIQ    298.15 -1590418+3618.8*T-480*T*LN(T)+.07*T**2
     -1E-06*T**3;  6000  N !
 FUNCTION G3OO      298.15 +G3OV#+GHSEROO#;  6000  N !
 FUNCTION G4OO      298.15 +G4OV#+GHSEROO#;  6000  N !
 FUNCTION G5OO      298.15 +G5OV#+GHSEROO#;  6000  N !
 FUNCTION G3OV      298.15 +G4OV#-G4VV#+G3VV#;  6000  N !
 FUNCTION G4OV      298.15 +GUO2#;  6000  N !
 FUNCTION G5OV      298.15 +GUO25#-.5*GHSEROO#+.69315*R#*T;      6000  N !
 FUNCTION G3VV      298.15 +GUO15#-1.5*GHSEROO#+1.12467*R#*T;    6000  N !
 FUNCTION G4VV      298.15 +G4OV#-2*GHSEROO#+545210.5;  6000      N !
 FUNCTION G5VV      298.15 +G5OV#-2*GHSEROO#+700000;  6000       N !
 FUNCTION GU3O8     298.15 -3674804.49+1600.50059*T
     -276.747749*T*LN(T)-.0136644165*T**2+2036667.44*T**(-1);  2000      N !
 FUNCTION GU4O9     298.15 -4621329.3+1786.83274*T-311.20912*T*LN(T)
     -.0311301013*T**2+1741269.49*T**(-1);  2.00000E+03  N !
 FUNCTION GUO15     298.15 +GUO2#-.5*GHSEROO#+747127-70.22618*T;    6000  N !
 FUNCTION GUO2      298.15 -1118940.2+554.00559*T-93.268*T*LN(T)
     +.0101704254*T**2-2.03335671E-06*T**3+1091073.7*T**(-1);  6000      N !
 FUNCTION GUO25     298.15 +GUO2#+.5*GHSEROO#-58351.62+39.67611*T;  6000  N !
 FUNCTION UN_ASS 298.15 0; 300 N !
 
 TYPE_DEFINITION % SEQ *!
 DEFINE_SYSTEM_DEFAULT ELEMENT 2 !
 DEFAULT_COMMAND DEF_SYS_ELEMENT VA /- !


 PHASE GAS:G %  1  1.0  !
    CONSTITUENT GAS:G :O,O2,O3,U,UO,UO2,UO3 :  !

   PARAMETER G(GAS,O;0) 298.15 +OGAS#+RTLNP#;  6000  N   REF174 !
   PARAMETER G(GAS,O2;0) 298.15 +O2GAS#+RTLNP#;  6000  N   REF175 !
   PARAMETER G(GAS,O3;0) 298.15 +O3GAS#+RTLNP#;  6000  N   REF176 !
   PARAMETER G(GAS,U;0) 298.15 +GASU#+RTLNP#;  6000  N   REF160 !
   PARAMETER G(GAS,UO;0) 298.15 +UOGAS#+RTLNP#;  6000  N   REF208 !
   PARAMETER G(GAS,UO2;0) 298.15 +UO2GAS#+RTLNP#;  6000  N   REF209 !
   PARAMETER G(GAS,UO3;0) 298.15 +UO3GAS#+RTLNP#;  6000  N   REF210 !


 PHASE IONIC_LIQUID:Y %  2 6   4 !
    CONSTITUENT IONIC_LIQUID:Y :U+4 : O-2,VA,O :  !

   PARAMETER G(IONIC_LIQUID,U+4:O-2;0) 298.15 +2*LOWLIQ#;  2.60000E+03  Y
   +2*O2ULIQ#; 6000 N REF425 !
   PARAMETER G(IONIC_LIQUID,U+4:VA;0) 298.15 +GLIQUU#;  6000    N REF10 !
   PARAMETER G(IONIC_LIQUID,O;0) 298.15 +GHSEROO#-2648.9+31.44*T;   
 6000  N REF10 !
   PARAMETER G(IONIC_LIQUID,U+4:O-2,VA;0) 298.15 +1773475.9-516*T;   
 6000  N REF425 !
   PARAMETER G(IONIC_LIQUID,U+4:O-2,VA;1) 298.15 +46774.9-120.37888*T;
    6000  N REF425 !
   PARAMETER G(IONIC_LIQUID,U+4:O-2,VA;2) 298.15 -500000; 6000  N REF425 !
   PARAMETER G(IONIC_LIQUID,U+4:O-2,O;0) 298.15 -370000; 6000  N REF425 !


 TYPE_DEFINITION & GES A_P_D BCC_A2 MAGNETIC  -1.0    4.00000E-01 !
 PHASE BCC_A2  %&  2 1   3 !
    CONSTITUENT BCC_A2  :U : O,VA% :  !

   PARAMETER G(BCC_A2,U:O;0) 298.15 +GBCCUU#+GHSEROO#+100000; 6000  N REF70 !
   PARAMETER G(BCC_A2,U:VA;0) 298.15 +GBCCUU#;  6000  N   REF10 !


 PHASE C1_MO2  %  3 1   2   1 !
    CONSTITUENT C1_MO2  :U+3,U+4%,U+5 : O-2%,VA : O-2,VA% :  !

   PARAMETER G(C1_MO2,U+3:O-2:O-2;0) 298.15 +G3OO#;  6000  N   REF425 !
   PARAMETER G(C1_MO2,U+4:O-2:O-2;0) 298.15 +G4OO#;  6000  N   REF425 !
   PARAMETER G(C1_MO2,U+5:O-2:O-2;0) 298.15 +G5OO#;  6000  N   REF425 !
   PARAMETER G(C1_MO2,U+3:VA:O-2;0) 298.15 100000;  6000  N  REF425 !
   PARAMETER G(C1_MO2,U+4:VA:O-2;0) 298.15 100000;  6000  N  REF425 !
   PARAMETER G(C1_MO2,U+5:VA:O-2;0) 298.15 100000;  6000  N  REF425 !
   PARAMETER G(C1_MO2,U+3:O-2:VA;0) 298.15 +G3OV#;  6000  N  REF425 !
   PARAMETER G(C1_MO2,U+4:O-2:VA;0) 298.15 +G4OV#;  6000  N  REF425 !
   PARAMETER G(C1_MO2,U+5:O-2:VA;0) 298.15 +G5OV#;  6000  N  REF425 !
   PARAMETER G(C1_MO2,U+3:VA:VA;0) 298.15 +G3VV#;  6000  N   REF425 !
   PARAMETER G(C1_MO2,U+4:VA:VA;0) 298.15 +G4VV#;  6000  N   REF425 !
   PARAMETER G(C1_MO2,U+5:VA:VA;0) 298.15 +G5VV#;  6000  N   REF425 !
   PARAMETER G(C1_MO2,U+4,U+5:O-2:O-2;0) 298.15 -124936.9-21.6838*T;  
  6000  N REF425 !
   PARAMETER G(C1_MO2,U+3,U+4:O-2:VA;0) 298.15 40133.7;   6000  N REF425 !
   PARAMETER G(C1_MO2,U+3,U+4:O-2:VA;1) 298.15 1076.4;  6000   N REF425 !


 TYPE_DEFINITION ' GES A_P_D FCC_A1 MAGNETIC  -3.0    2.80000E-01 !
 PHASE FCC_A1  %'  2 1   1 !
    CONSTITUENT FCC_A1  :U : O,VA :  !

   PARAMETER G(FCC_A1,U:O;0) 298.15 -504526+100*T+GHSEROO#+GHSERUU#;  
  6000  N REF0 !
   PARAMETER G(FCC_A1,U:VA;0) 298.15 +GFCCUU#;  3.00000E+03  N REF10 !


 PHASE ORTHORHOMBIC_A20  %  1  1.0  !
    CONSTITUENT ORTHORHOMBIC_A20  :U% :  !

   PARAMETER G(ORTHORHOMBIC_A20,U;0) 298.15 +GHSERUU#;  4.00000E+03  N REF10 !


 PHASE TETRAGONAL_U  %  1  1.0  !
    CONSTITUENT TETRAGONAL_U  :U% :  !

   PARAMETER G(TETRAGONAL_U,U;0) 298.15 +GTETUU#;  3.00000E+03  N   REF10 !


 PHASE U3O8_S  %  2 8   3 !
    CONSTITUENT U3O8_S  :O : U :  !

   PARAMETER G(U3O8_S,O:U;0) 298.15 +GU3O8#;  6000  N REF425 !


 PHASE U3O8_S2  %  2 8   3 !
    CONSTITUENT U3O8_S2  :O : U :  !

   PARAMETER G(U3O8_S2,O:U;0) 298.15 +GU3O8#+135-.279503106*T; 6000  N REF212 !


 PHASE U3O8_S3  %  2 8   3 !
    CONSTITUENT U3O8_S3  :O : U :  !

   PARAMETER G(U3O8_S3,O:U;0) 298.15 +GU3O8#+283-.540066486*T; 6000 N REF212 !


 PHASE U3O8_S4  %  2 8   3 !
    CONSTITUENT U3O8_S4  :O : U :  !

   PARAMETER G(U3O8_S4,O:U;0) 298.15 +GU3O8#+597-.918379739*T; 6000 N REF212 !


 PHASE U4O9_S  %  2 9   4 !
    CONSTITUENT U4O9_S  :O : U :  !

   PARAMETER G(U4O9_S,O:U;0) 298.15 +GU4O9#;  6000  N REF425 !


 PHASE U4O9_S2  %  2 9   4 !
    CONSTITUENT U4O9_S2  :O : U :  !

   PARAMETER G(U4O9_S2,O:U;0) 298.15 +GU4O9#+2594-7.45402299*T; 6000 N REF213 !


 PHASE U4O9_S3  %  2 9   4 !
    CONSTITUENT U4O9_S3  :O : U :  !

   PARAMETER G(U4O9_S3,O:U;0) 298.15 +GU4O9#+2684.25-7.5602*T; 6000  N REF213 !


 PHASE UO3  %  2 3   1 !
    CONSTITUENT UO3  :O : U :  !

   PARAMETER G(UO3,O:U;0) 298.15 -1260394.62+616.475675*T
  -105.7368*T*LN(T)+.0104274*T**2-3.18099167E-06*T**3+868736*T**(-1);  
  3.00000E+03  N REF211 !


 LIST_OF_REFERENCES
 NUMBER  SOURCE
   REF174 'O1<G> JANAF 1982; ASSESSMENT DATED 3/77 SGTE OXYGEN <MONATOMIC 
         GAS>, from SSUB'
   REF175 'O2<G> T.C.R.A.S. Class: 1 OXYGEN <DIATOMIC GAS>, from SSUB'
   REF176 'O3<G> T.C.R.A.S. Class: 4 OZONE <GAS>, from SSUB'
   REF10  'A T Dinsdale, SGTE Data for Pure Elements, Calphad 15(1991)4 p 
         317-425; also in NPL Report DMA(A)195 Rev. August 1990'
   REF160 'U1<G> T.C.R.A.S Class: 4 Data provided by T.C.R.A.S. in 2000, 
         from SSUB'
   REF208 'O1U1<G> T.C.R.A.S Class: 6 Data provided by T.C.R.A.S. in 2000, 
         from SSUB, different of Tbase'
   REF209 'O2U1<G> T.C.R.A.S. Class: 6 URANIUM DIOXIDE <GAS>, from SSUB, 
         slightly different of Tbase'
   REF210 'O3U1<G> T.C.R.A.S Class: 6 Data provided by T.C.R.A.S. in 2000, 
         from SSUB, different of Tbase'
   REF425 'C. Guéneau, N. Dupin, B. Sundman, C. Martial, J.-C. Dumas, S. 
         Gossé,2 S. Chatain, F. De Bruycker, D. Manara, R.J.M. Konings, J. 
         Nucl. Mat. 419 (1-3), 145-167 (2011); C-O-Pu-U'
   REF70  'fixing some parameters of low importance'
   REF211 'O3U1 T.C.R.A.S. Class: 7 URANIUM TRIOXIDE, from SSUB'
   REF212 'SSUB 3-URANIUM 8-OXIDE : M.H.Rand March 1994, taken from 
         Cordfunke. In the fuelbase, the expression relative to the alpha 
         form has been kept identical to SSUB for the higher temperatures 
         forms but the alpha form expression has been modified in 11GUE'
   REF213 'SSUB 4-URANIUM 9-OXIDE : M.H.Rand March 1994, taken from 
         Cordfunke. In the fuelbase, the expression relative to the alpha 
         form has been kept identical to SSUB for beta and to 08GUE for 
         gamma but the alpha form expression has been modified in 11GUE'
  ! 
 
