
$ Database file written 2012- 9- 7
$ From database: SSOL2                   
 ELEMENT /-   ELECTRON_GAS              0.0000E+00  0.0000E+00  0.0000E+00!
 ELEMENT VA   VACUUM                    0.0000E+00  0.0000E+00  0.0000E+00!
 ELEMENT CR   BCC_A2                    5.1996E+01  4.0500E+03  2.3560E+01!
 ELEMENT FE   BCC_A2                    5.5847E+01  4.4890E+03  2.7280E+01!
 
 
 FUNCTION GHSERCR    2.98150E+02  -8856.94+157.48*T-26.908*T*LN(T)
     +.00189435*T**2-1.47721E-06*T**3+139250*T**(-1);  2.18000E+03  Y
      -34869.344+344.18*T-50*T*LN(T)-2.88526E+32*T**(-9);  6.00000E+03  N !
 FUNCTION GPCRLIQ    2.98150E+02  +YCRLIQ#*EXP(ZCRLIQ#);   6.00000E+03   N !
 FUNCTION GFELIQ     2.98150E+02  +12040.17-6.55843*T-3.6751551E-21*T**7
     +GHSERFE#;  1.81100E+03  Y
      -10839.7+291.302*T-46*T*LN(T);  6.00000E+03  N !
 FUNCTION GPFELIQ    2.98150E+02  +YFELIQ#*EXP(ZFELIQ#);   6.00000E+03   N !
 FUNCTION GPCRBCC    2.98150E+02  +YCRBCC#*EXP(ZCRBCC#);   6.00000E+03   N !
 FUNCTION GHSERFE    2.98150E+02  +1225.7+124.134*T-23.5143*T*LN(T)
     -.00439752*T**2-5.8927E-08*T**3+77359*T**(-1);  1.81100E+03  Y
      -25383.581+299.31255*T-46*T*LN(T)+2.29603E+31*T**(-9);  6.00000E+03  N 
     !
 FUNCTION GPFEBCC    2.98150E+02  +YFEBCC#*EXP(ZFEBCC#);   6.00000E+03   N !
 FUNCTION GCRFCC     2.98150E+02  +7284+.163*T+GHSERCR#;   6.00000E+03   N !
 FUNCTION GFEFCC     2.98150E+02  -1462.4+8.282*T-1.15*T*LN(T)+6.4E-04*T**2
     +GHSERFE#;  1.81100E+03  Y
      -27098.266+300.25256*T-46*T*LN(T)+2.78854E+31*T**(-9);  6.00000E+03  N 
     !
 FUNCTION GPFEFCC    2.98150E+02  +YFEFCC#*EXP(ZFEFCC#);   6.00000E+03   N !
 FUNCTION GPSIG1     2.98150E+02  +1.09E-04*P;   6.00000E+03   N !
 FUNCTION GPSIG2     2.98150E+02  +1.117E-04*P;   6.00000E+03   N !
 FUNCTION YCRLIQ     2.98150E+02  +VCRLIQ#*EXP(-ECRLIQ#);   6.00000E+03   N !
 FUNCTION ZCRLIQ     2.98150E+02  +1*LN(XCRLIQ#);   6.00000E+03   N !
 FUNCTION YFELIQ     2.98150E+02  +VFELIQ#*EXP(-EFELIQ#);   6.00000E+03   N !
 FUNCTION ZFELIQ     2.98150E+02  +1*LN(XFELIQ#);   6.00000E+03   N !
 FUNCTION YCRBCC     2.98150E+02  +VCRBCC#*EXP(-ECRBCC#);   6.00000E+03   N !
 FUNCTION ZCRBCC     2.98150E+02  +1*LN(XCRBCC#);   6.00000E+03   N !
 FUNCTION YFEBCC     2.98150E+02  +VFEBCC#*EXP(-EFEBCC#);   6.00000E+03   N !
 FUNCTION ZFEBCC     2.98150E+02  +1*LN(XFEBCC#);   6.00000E+03   N !
 FUNCTION YFEFCC     2.98150E+02  +VFEFCC#*EXP(-EFEFCC#);   6.00000E+03   N !
 FUNCTION ZFEFCC     2.98150E+02  +1*LN(XFEFCC#);   6.00000E+03   N !
 FUNCTION VCRLIQ     2.98150E+02  +7.653E-06*EXP(ACRLIQ#);   6.00000E+03   N 
     !
 FUNCTION ECRLIQ     2.98150E+02  +1*LN(CCRLIQ#);   6.00000E+03   N !
 FUNCTION XCRLIQ     2.98150E+02  +1*EXP(.8*DCRLIQ#)-1;   6.00000E+03   N !
 FUNCTION VFELIQ     2.98150E+02  +6.46677E-06*EXP(AFELIQ#);   6.00000E+03   
     N !
 FUNCTION EFELIQ     2.98150E+02  +1*LN(CFELIQ#);   6.00000E+03   N !
 FUNCTION XFELIQ     2.98150E+02  +1*EXP(.8484467*DFELIQ#)-1;   6.00000E+03  
      N !
 FUNCTION VCRBCC     2.98150E+02  +7.188E-06*EXP(ACRBCC#);   6.00000E+03   N 
     !
 FUNCTION ECRBCC     2.98150E+02  +1*LN(CCRBCC#);   6.00000E+03   N !
 FUNCTION XCRBCC     2.98150E+02  +1*EXP(.8*DCRBCC#)-1;   6.00000E+03   N !
 FUNCTION VFEBCC     2.98150E+02  +7.042095E-06*EXP(AFEBCC#);   6.00000E+03  
      N !
 FUNCTION EFEBCC     2.98150E+02  +1*LN(CFEBCC#);   6.00000E+03   N !
 FUNCTION XFEBCC     2.98150E+02  +1*EXP(.7874195*DFEBCC#)-1;   6.00000E+03  
      N !
 FUNCTION VFEFCC     2.98150E+02  +6.688726E-06*EXP(AFEFCC#);   6.00000E+03  
      N !
 FUNCTION EFEFCC     2.98150E+02  +1*LN(CFEFCC#);   6.00000E+03   N !
 FUNCTION XFEFCC     2.98150E+02  +1*EXP(.8064454*DFEFCC#)-1;   6.00000E+03  
      N !
 FUNCTION ACRLIQ     2.98150E+02  +1.7E-05*T+9.2E-09*T**2;   6.00000E+03   N 
     !
 FUNCTION CCRLIQ     2.98150E+02  3.72E-11;   6.00000E+03   N !
 FUNCTION DCRLIQ     2.98150E+02  +1*LN(BCRLIQ#);   6.00000E+03   N !
 FUNCTION AFELIQ     2.98150E+02  +1.135E-04*T;   6.00000E+03   N !
 FUNCTION CFELIQ     2.98150E+02  +4.22534787E-12+2.71569924E-14*T;   
     6.00000E+03   N !
 FUNCTION DFELIQ     2.98150E+02  +1*LN(BFELIQ#);   6.00000E+03   N !
 FUNCTION ACRBCC     2.98150E+02  +1.7E-05*T+9.2E-09*T**2;   6.00000E+03   N 
     !
 FUNCTION CCRBCC     2.98150E+02  2.08E-11;   6.00000E+03   N !
 FUNCTION DCRBCC     2.98150E+02  +1*LN(BCRBCC#);   6.00000E+03   N !
 FUNCTION AFEBCC     2.98150E+02  +2.3987E-05*T+1.2845E-08*T**2;   
     6.00000E+03   N !
 FUNCTION CFEBCC     2.98150E+02  +2.20949565E-11+2.41329523E-16*T;   
     6.00000E+03   N !
 FUNCTION DFEBCC     2.98150E+02  +1*LN(BFEBCC#);   6.00000E+03   N !
 FUNCTION AFEFCC     2.98150E+02  +7.3097E-05*T;   6.00000E+03   N !
 FUNCTION CFEFCC     2.98150E+02  +2.62285341E-11+2.71455808E-16*T;   
     6.00000E+03   N !
 FUNCTION DFEFCC     2.98150E+02  +1*LN(BFEFCC#);   6.00000E+03   N !
 FUNCTION BCRLIQ     2.98150E+02  +1+4.65E-11*P;   6.00000E+03   N !
 FUNCTION BFELIQ     2.98150E+02  +1+4.98009787E-12*P+3.20078924E-14*T*P;   
     6.00000E+03   N !
 FUNCTION BCRBCC     2.98150E+02  +1+2.6E-11*P;   6.00000E+03   N !
 FUNCTION BFEBCC     2.98150E+02  +1+2.80599565E-11*P+3.06481523E-16*T*P;   
     6.00000E+03   N !
 FUNCTION BFEFCC     2.98150E+02  +1+3.25236341E-11*P+3.36607808E-16*T*P;   
     6.00000E+03   N !
 FUNCTION UN_ASS 298.15 0; 300 N !
 
 TYPE_DEFINITION % SEQ *!
 DEFINE_SYSTEM_DEFAULT ELEMENT 2 !
 DEFAULT_COMMAND DEF_SYS_ELEMENT VA /- !


 PHASE LIQUID:L %  1  1.0  !
    CONSTITUENT LIQUID:L :CR,FE :  !

   PARAMETER G(LIQUID,CR;0)  2.98150E+02  +24339.955-11.420225*T
  +2.37615E-21*T**7+GHSERCR#+GPCRLIQ#;  2.18000E+03  Y
   +18409.36-8.563683*T+2.88526E+32*T**(-9)+GHSERCR#+GPCRLIQ#;  6.00000E+03  
  N REF283 !
   PARAMETER G(LIQUID,FE;0)  2.98150E+02  +GFELIQ#+GPFELIQ#;   6.00000E+03   
  N REF283 !
   PARAMETER G(LIQUID,CR,FE;0)  2.98150E+02  -14550+6.65*T;   6.00000E+03   
  N REF107 !


 TYPE_DEFINITION & GES A_P_D BCC_A2 MAGNETIC  -1.0    4.00000E-01 !
 PHASE BCC_A2  %&  2 1   3 !
    CONSTITUENT BCC_A2  :CR%,FE% : VA% :  !

   PARAMETER G(BCC_A2,CR:VA;0)  2.98150E+02  +GHSERCR#+GPCRBCC#;   
  6.00000E+03   N REF283 !
   PARAMETER TC(BCC_A2,CR:VA;0)  2.98150E+02  -311.5;   6.00000E+03   N 
  REF281 !
   PARAMETER BMAGN(BCC_A2,CR:VA;0)  2.98150E+02  -.01;   6.00000E+03   N 
  REF281 !
   PARAMETER G(BCC_A2,FE:VA;0)  2.98150E+02  +GHSERFE#+GPFEBCC#;   
  6.00000E+03   N REF283 !
   PARAMETER TC(BCC_A2,FE:VA;0)  2.98150E+02  1043;   6.00000E+03   N REF281 !
   PARAMETER BMAGN(BCC_A2,FE:VA;0)  2.98150E+02  2.22;   6.00000E+03   N 
  REF281 !
   PARAMETER G(BCC_A2,CR,FE:VA;0)  2.98150E+02  +20500-9.68*T;   6.00000E+03 
    N REF107 !
   PARAMETER TC(BCC_A2,CR,FE:VA;0)  2.98150E+02  1650;   6.00000E+03   N 
  REF107 !
   PARAMETER TC(BCC_A2,CR,FE:VA;1)  2.98150E+02  550;   6.00000E+03   N 
  REF107 !
   PARAMETER BMAGN(BCC_A2,CR,FE:VA;0)  2.98150E+02  -.85;   6.00000E+03   N 
  REF107 !


 TYPE_DEFINITION ' GES A_P_D FCC_A1 MAGNETIC  -3.0    2.80000E-01 !
 PHASE FCC_A1  %'  2 1   1 !
    CONSTITUENT FCC_A1  :CR,FE% : VA% :  !

   PARAMETER G(FCC_A1,CR:VA;0)  2.98150E+02  +GCRFCC#+GPCRBCC#;   
  6.00000E+03   N REF281 !
   PARAMETER TC(FCC_A1,CR:VA;0)  2.98150E+02  -1109;   6.00000E+03   N 
  REF281 !
   PARAMETER BMAGN(FCC_A1,CR:VA;0)  2.98150E+02  -2.46;   6.00000E+03   N 
  REF281 !
   PARAMETER G(FCC_A1,FE:VA;0)  2.98150E+02  +GFEFCC#+GPFEFCC#;   
  6.00000E+03   N REF283 !
   PARAMETER TC(FCC_A1,FE:VA;0)  2.98150E+02  -201;   6.00000E+03   N REF281 !
   PARAMETER BMAGN(FCC_A1,FE:VA;0)  2.98150E+02  -2.1;   6.00000E+03   N 
  REF281 !
   PARAMETER G(FCC_A1,CR,FE:VA;0)  2.98150E+02  +10833-7.477*T;   
  6.00000E+03   N REF107 !
   PARAMETER G(FCC_A1,CR,FE:VA;1)  2.98150E+02  1410;   6.00000E+03   N 
  REF107 !


 PHASE SIGMA  %  3 8   4   18 !
    CONSTITUENT SIGMA  :FE : CR : CR,FE :  !

   PARAMETER G(SIGMA,FE:CR:CR;0)  2.98150E+02  +8*GFEFCC#+22*GHSERCR#+92300
  -95.96*T+GPSIG1#;   6.00000E+03   N REF107 !
   PARAMETER G(SIGMA,FE:CR:FE;0)  2.98150E+02  +8*GFEFCC#+4*GHSERCR#
  +18*GHSERFE#+117300-95.96*T+GPSIG2#;   6.00000E+03   N REF107 !

 LIST_OF_REFERENCES
 NUMBER  SOURCE
   REF283  'Alan Dinsdale, SGTE Data for Pure Elements, 
          Calphad Vol 15(1991) p 317-425, 
          also in NPL Report DMA(A)195 Rev. August 1990'
   REF281  'Alan Dinsdale, SGTE Data for Pure Elements, NPL Report DMA(A)195 
          September 1989'
   REF107  'J-O Andersson, B. Sundman, CALPHAD Vol 11, (1987), p 83-92 
          TRITA 0270 (1986); CR-FE'
  ! 
 
