
$ Database file written 2011- 1-31
$ From database: USER                    
 ELEMENT /-   ELECTRON_GAS              0.0000E+00  0.0000E+00  0.0000E+00!
 ELEMENT VA   VACUUM                    0.0000E+00  0.0000E+00  0.0000E+00!
 ELEMENT AL   FCC_A1                    2.6982E+01  4.5773E+03  2.8322E+01!
 ELEMENT CR   BCC_A2                    5.1996E+01  4.0500E+03  2.3560E+01!
 ELEMENT NI   FCC_A1                    5.8690E+01  4.7870E+03  2.9796E+01!
 
 SPECIES AL2                         AL2!
 SPECIES CR2                         CR2!
 SPECIES NI2                         NI2!
 
 FUNCTION F154T      2.98150E+02  +323947.58-25.1480943*T-20.859*T*LN(T)
     +4.5665E-05*T**2-3.942E-09*T**3-24275.5*T**(-1);  4.30000E+03  Y
      +342017.233-54.0526109*T-17.7891*T*LN(T)+6.822E-05*T**2
     -1.91111667E-08*T**3-14782200*T**(-1);  8.20000E+03  Y
      +542396.07-411.214335*T+22.2419*T*LN(T)-.00349619*T**2+4.0491E-08*T**3
     -2.0366965E+08*T**(-1);  1.00000E+04  N !
 FUNCTION F625T      2.98150E+02  +496408.232+35.479739*T-41.6397*T*LN(T)
     +.00249636*T**2-4.90507333E-07*T**3+85390.3*T**(-1);  9.00000E+02  Y
      +497613.221+17.368131*T-38.85476*T*LN(T)-2.249805E-04*T**2
     -9.49003167E-09*T**3-5287.23*T**(-1);  2.80000E+03  N !
 FUNCTION GHSERAL    2.98150E+02  -7976.15+137.093038*T-24.3671976*T*LN(T)
     -.001884662*T**2-8.77664E-07*T**3+74092*T**(-1);  7.00000E+02  Y
      -11276.24+223.048446*T-38.5844296*T*LN(T)+.018531982*T**2
     -5.764227E-06*T**3+74092*T**(-1);  9.33600E+02  Y
      -11278.378+188.684153*T-31.748192*T*LN(T)-1.231E+28*T**(-9);  
     6.00000E+03  N !
 FUNCTION GBCCAL     2.98150E+02  +10083-4.813*T+GHSERAL#;   6.00000E+03   N 
     !
 FUNCTION LB2ALVA    2.98150E+02  150000;   6.00000E+03   N !
 FUNCTION B2ALVA     2.98150E+02  +10000-T;   6.00000E+03   N !
 FUNCTION F7454T     2.98150E+02  +390765.331-31.5192154*T-21.36083*T*LN(T)
     +7.253215E-04*T**2-1.588679E-07*T**3+10285.15*T**(-1);  1.10000E+03  Y
      +393886.928-44.107465*T-19.96003*T*LN(T)+.001513089*T**2
     -4.23648333E-07*T**3-722515*T**(-1);  2.00000E+03  Y
      +421372.003-231.888524*T+5.362886*T*LN(T)-.00848877*T**2
     +2.984635E-07*T**3-6015405*T**(-1);  3.30000E+03  Y
      +305164.698+251.019831*T-55.20304*T*LN(T)+.005324585*T**2
     -2.850405E-07*T**3+34951485*T**(-1);  5.10000E+03  Y
      +1069921.1-1708.93262*T+175.0508*T*LN(T)-.025574185*T**2
     +4.94447E-07*T**3-4.4276355E+08*T**(-1);  7.60000E+03  Y
      -871952.838+1686.47356*T-204.5589*T*LN(T)+.007475225*T**2
     -4.618745E-08*T**3+1.423504E+09*T**(-1);  1.00000E+04  N !
 FUNCTION F7735T     2.98150E+02  +598511.402+41.5353219*T-40.56798*T*LN(T)
     +.004961847*T**2-1.61216717E-06*T**3+154422.85*T**(-1);  8.00000E+02  Y
      +613345.232-104.20799*T-19.7643*T*LN(T)-.007085085*T**2
     -4.69883E-07*T**3-1738066.5*T**(-1);  1.40000E+03  Y
      +642608.843-369.286259*T+17.64743*T*LN(T)-.02767321*T**2
     +1.605906E-06*T**3-5831655*T**(-1);  2.30000E+03  Y
      +553119.895+159.188556*T-52.07969*T*LN(T)-.004229401*T**2
     +1.5939925E-07*T**3+14793625*T**(-1);  3.90000E+03  Y
      +347492.339+623.137624*T-105.0428*T*LN(T)+3.9699545E-04*T**2
     +1.51783483E-07*T**3+1.4843765E+08*T**(-1);  5.80000E+03  Y
      -484185.055+2598.25559*T-334.7145*T*LN(T)+.028597625*T**2
     -4.97520167E-07*T**3+7.135805E+08*T**(-1);  6.00000E+03  N !
 FUNCTION GCRLIQ     2.98150E+02  +24339.955-11.420225*T+2.37615E-21*T**7
     +GHSERCR#;  2.18000E+03  Y
      -16459.984+335.616316*T-50*T*LN(T);  6.00000E+03  N !
$ FUNCTION GPCRLIQ    2.98150E+02  +YCRLIQ#*EXP(ZCRLIQ#);   6.00000E+03   N !
$ FUNCTION GPCRBCC    2.98150E+02  +YCRBCC#*EXP(ZCRBCC#);   6.00000E+03   N !
 FUNCTION GPCRLIQ    2.98150E+02  0;   6.00000E+03   N !
 FUNCTION GPCRBCC    2.98150E+02  0;   6.00000E+03   N !
 FUNCTION GFCCCR     2.98150E+02  +7284+.163*T+GHSERCR#;   6.00000E+03   N !
 FUNCTION GHSERCR    2.98140E+02  -8856.94+157.48*T-26.908*T*LN(T)
     +.00189435*T**2-1.47721E-06*T**3+139250*T**(-1);  2.18000E+03  Y
      -34869.344+344.18*T-50*T*LN(T)-2.88526E+32*T**(-9);  6.00000E+03  N !
 FUNCTION F13191T    2.98150E+02  +417658.868-44.7777921*T-20.056*T*LN(T)
     -.0060415*T**2+1.24774E-06*T**3-16320*T**(-1);  8.00000E+02  Y
      +413885.448+9.41787679*T-28.332*T*LN(T)+.00173115*T**2-8.399E-08*T**3
     +289050*T**(-1);  3.90000E+03  Y
      +440866.732-62.5810038*T-19.819*T*LN(T)+5.067E-04*T**2
     -4.93233333E-08*T**3-15879735*T**(-1);  7.60000E+03  Y
      +848806.287-813.398164*T+64.69*T*LN(T)-.00731865*T**2
     +8.71833333E-08*T**3-3.875846E+08*T**(-1);  1.00000E+04  N !
 FUNCTION F13265T    2.98150E+02  +638073.279-68.1901928*T-24.897*T*LN(T)
     -.0313584*T**2+5.93355333E-06*T**3-14215*T**(-1);  8.00000E+02  Y
      +611401.772+268.084821*T-75.25401*T*LN(T)+.01088525*T**2
     -7.08741667E-07*T**3+2633835*T**(-1);  2.10000E+03  Y
      +637459.339+72.0712678*T-48.587*T*LN(T)-9.09E-05*T**2
     +9.12933333E-08*T**3-1191755*T**(-1);  4.50000E+03  Y
      +564540.781+329.599011*T-80.11301*T*LN(T)+.00578085*T**2
     -1.08841667E-07*T**3+29137900*T**(-1);  6.00000E+03  N !
 FUNCTION GHSERNI    2.98140E+02  -5179.159+117.854*T-22.096*T*LN(T)
     -.0048407*T**2;  1.72800E+03  Y
      -27840.655+279.135*T-43.1*T*LN(T)+1.12754E+31*T**(-9);  6.00000E+03  N 
     !
 FUNCTION GBCCNI     2.98150E+02  +8715.084-3.556*T+GHSERNI#;   6.00000E+03  
      N !
 FUNCTION LB2NIVA    2.98150E+02  -64024.38+26.49419*T;   6.00000E+03   N !
 FUNCTION B2NIVA     2.98150E+02  +162397.3-27.40575*T;   6.00000E+03   N !
 FUNCTION ALCR3      2.98150E+02  +3*U1ALCR#;   6.00000E+03   N !
 FUNCTION AL3CR      2.98150E+02  +3*U1ALCR#;   6.00000E+03   N !
 FUNCTION AL2CR2     2.98150E+02  +4*U1ALCR#;   6.00000E+03   N !
 FUNCTION L04ALCR    2.98150E+02  +U3ALCR#;   6.00000E+03   N !
 FUNCTION L14ALCR    2.98150E+02  +U4ALCR#;   6.00000E+03   N !
 FUNCTION LB2ALNI    2.98150E+02  -52440.88+11.30117*T;   6.00000E+03   N !
 FUNCTION B2ALNI     2.98150E+02  -152397.3+26.40575*T;   6.00000E+03   N !
 FUNCTION ALNI3      2.98150E+02  +3*U1ALNI#;   6.00000E+03   N !
 FUNCTION AL3NI      2.98150E+02  +3*U1ALNI#;   6.00000E+03   N !
 FUNCTION AL2NI2     2.98150E+02  +4*U1ALNI#;   6.00000E+03   N !
 FUNCTION L04ALNI    2.98150E+02  +U3ALNI#;   6.00000E+03   N !
 FUNCTION L14ALNI    2.98150E+02  +U4ALNI#;   6.00000E+03   N !
 FUNCTION CRNI3      2.98150E+02  +3*U1CRNI#;   6.00000E+03   N !
 FUNCTION CR3NI      2.98150E+02  +3*U1CRNI#;   6.00000E+03   N !
 FUNCTION CR2NI2     2.98150E+02  +4*U1CRNI#;   6.00000E+03   N !
 FUNCTION L04CRNI    2.98150E+02  +U3CRNI#;   6.00000E+03   N !
 FUNCTION L14CRNI    2.98150E+02  +U4CRNI#;   6.00000E+03   N !
 FUNCTION ALCRNI2    2.98150E+02  +U1ALCR#+2*U1ALNI#+2*U1CRNI#+U1ALCRNI#;   
     6.00000E+03   N !
 FUNCTION ALCR2NI    2.98150E+02  +2*U1ALCR#+U1ALNI#+2*U1CRNI#+U2ALCRNI#;   
     6.00000E+03   N !
 FUNCTION AL2CRNI    2.98150E+02  +2*U1ALCR#+2*U1ALNI#+U1CRNI#+U3ALCRNI#;   
     6.00000E+03   N !
 FUNCTION YCRBCC     2.98150E+02  +VCRBCC#*EXP(-ECRBCC#);   6.00000E+03   N !
 FUNCTION ZCRBCC     2.98150E+02  +1*LN(XCRBCC#);   6.00000E+03   N !
 FUNCTION YCRLIQ     2.98150E+02  +VCRLIQ#*EXP(-ECRLIQ#);   6.00000E+03   N !
 FUNCTION ZCRLIQ     2.98150E+02  +1*LN(XCRLIQ#);   6.00000E+03   N !
 FUNCTION U3ALCR     298.15 0.0; 6000.00  N !
 FUNCTION U4ALCR     298.15 0.0; 6000.00  N !
 FUNCTION U1ALCR     2.98150E+02  -830;   6.00000E+03   N !
 FUNCTION U3ALNI     298.15 0.0; 6000.00  N !
 FUNCTION U4ALNI     2.98150E+02  +7203.60609-3.7427303*T;   6.00000E+03   N 
     !
 FUNCTION U1ALNI     2.98150E+02  +2*UNTIER#*UALNI#;   6.00000E+03   N !
 FUNCTION U3CRNI     298.15 0.0; 6000.00  N !
 FUNCTION U4CRNI     298.15 0.0; 6000.00  N !
 FUNCTION U1CRNI     2.98150E+02  -1980;   6.00000E+03   N !
 FUNCTION U1ALCRNI   2.98150E+02  6650;   6.00000E+03   N !
 FUNCTION U2ALCRNI   298.15 0.0; 6000.00  N !
 FUNCTION U3ALCRNI   298.15 0.0; 6000.00  N !
 FUNCTION VCRBCC     2.98150E+02  +7.188E-06*EXP(ACRBCC#);   6.00000E+03   N 
     !
 FUNCTION ECRBCC     2.98150E+02  +1*LN(CCRBCC#);   6.00000E+03   N !
 FUNCTION XCRBCC     2.98150E+02  +1*EXP(.8*DCRBCC#)-1;   6.00000E+03   N !
 FUNCTION VCRLIQ     2.98150E+02  +7.653E-06*EXP(ACRLIQ#);   6.00000E+03   N 
     !
 FUNCTION ECRLIQ     2.98150E+02  +1*LN(CCRLIQ#);   6.00000E+03   N !
 FUNCTION XCRLIQ     2.98150E+02  +1*EXP(.8*DCRLIQ#)-1;   6.00000E+03   N !
 FUNCTION UNTIER     2.98150E+02  +TROIS#**(-1);   6.00000E+03   N !
 FUNCTION UALNI      2.98150E+02  -22212.8931+4.39570389*T;   6.00000E+03   
     N !
 FUNCTION TROIS      2.98150E+02  3;   6.00000E+03   N !
 FUNCTION ACRBCC     2.98150E+02  +1.7E-05*T+9.2E-09*T**2;   6.00000E+03   N 
     !
 FUNCTION CCRBCC     2.98150E+02  2.08E-11;   6.00000E+03   N !
 FUNCTION DCRBCC     2.98150E+02  +1*LN(BCRBCC#);   6.00000E+03   N !
 FUNCTION ACRLIQ     2.98150E+02  +1.7E-05*T+9.2E-09*T**2;   6.00000E+03   N 
     !
 FUNCTION CCRLIQ     2.98150E+02  3.72E-11;   6.00000E+03   N !
 FUNCTION DCRLIQ     2.98150E+02  +1*LN(BCRLIQ#);   6.00000E+03   N !
 FUNCTION BCRBCC     2.98150E+02  +1+2.6E-11*P;   6.00000E+03   N !
 FUNCTION BCRLIQ     2.98150E+02  +1+4.65E-11*P;   6.00000E+03   N !
 FUNCTION UN_ASS 298.15 0; 300 N !
 
 TYPE_DEFINITION % SEQ *!
 DEFINE_SYSTEM_DEFAULT ELEMENT 2 !
 DEFAULT_COMMAND DEF_SYS_ELEMENT VA /- !


 PHASE GAS:G %  1  1.0  !
    CONSTITUENT GAS:G :AL,AL2,CR,CR2,NI,NI2 :  !

   PARAMETER G(GAS,AL;0)  2.98150E+02  +F154T#+R#*T*LN(1E-05*P);   
  6.00000E+03   N REF10 !
   PARAMETER G(GAS,AL2;0)  2.98150E+02  +F625T#+R#*T*LN(1E-05*P);   
  6.00000E+03   N REF11 !
   PARAMETER G(GAS,CR;0)  2.98150E+02  +F7454T#+R#*T*LN(1E-05*P);   
  6.00000E+03   N REF12 !
   PARAMETER G(GAS,CR2;0)  2.98150E+02  +F7735T#+R#*T*LN(1E-05*P);   
  6.00000E+03   N REF13 !
   PARAMETER G(GAS,NI;0)  2.98150E+02  +F13191T#+R#*T*LN(1E-05*P);   
  6.00000E+03   N REF14 !
   PARAMETER G(GAS,NI2;0)  2.98150E+02  +F13265T#+R#*T*LN(1E-05*P);   
  6.00000E+03   N REF15 !


 PHASE LIQUID:L %  1  1.0  !
    CONSTITUENT LIQUID:L :AL,CR,NI :  !

   PARAMETER G(LIQUID,AL;0)  2.98130E+02  +11005.029-11.841867*T
  +7.934E-20*T**7+GHSERAL#;  9.33600E+02  Y
   +10482.382-11.253974*T+1.231E+28*T**(-9)+GHSERAL#;  6.00000E+03  N REF3 !
   PARAMETER G(LIQUID,CR;0)  2.98150E+02  +GCRLIQ#+GPCRLIQ#;   6.00000E+03   
  N REF3 !
   PARAMETER G(LIQUID,NI;0)  2.98130E+02  +16414.686-9.397*T
  -3.82318E-21*T**7+GHSERNI#;  1.72800E+03  Y
   +18290.88-10.537*T-1.12754E+31*T**(-9)+GHSERNI#;  6.00000E+03  N REF3 !
   PARAMETER G(LIQUID,AL,CR;0)  2.98150E+02  -29000;   6.00000E+03   N REF5 !
   PARAMETER G(LIQUID,AL,CR;1)  2.98150E+02  -11000;   6.00000E+03   N REF5 !
   PARAMETER G(LIQUID,AL,CR,NI;0)  2.98150E+02  16000;   6.00000E+03   N 
  REF9 !
   PARAMETER G(LIQUID,AL,NI;0)  2.98150E+02  -207109.28+41.31501*T;   
  6.00000E+03   N REF7 !
   PARAMETER G(LIQUID,AL,NI;1)  2.98150E+02  -10185.79+5.8714*T;   
  6.00000E+03   N REF7 !
   PARAMETER G(LIQUID,AL,NI;2)  2.98150E+02  +81204.81-31.95713*T;   
  6.00000E+03   N REF7 !
   PARAMETER G(LIQUID,AL,NI;3)  2.98150E+02  +4365.35-2.51632*T;   
  6.00000E+03   N REF7 !
   PARAMETER G(LIQUID,AL,NI;4)  2.98150E+02  -22101.64+13.16341*T;   
  6.00000E+03   N REF7 !
   PARAMETER G(LIQUID,CR,NI;0)  2.98150E+02  +318-7.3318*T;   6.00000E+03   
  N REF4 !
   PARAMETER G(LIQUID,CR,NI;1)  2.98150E+02  +16941-6.3696*T;   6.00000E+03  
   N REF4 !


 PHASE AL11CR2  %  3 10   1   2 !
    CONSTITUENT AL11CR2  :AL : AL : CR :  !

   PARAMETER G(AL11CR2,AL:AL:CR;0)  2.98150E+02  +11*GHSERAL#+2*GHSERCR#
  -175500+25.805*T;   6.00000E+03   N REF5 !


 PHASE AL13CR2  %  2 13   2 !
    CONSTITUENT AL13CR2  :AL : CR :  !

   PARAMETER G(AL13CR2,AL:CR;0)  2.98150E+02  +13*GHSERAL#+2*GHSERCR#-174405
  +22.2*T;   6.00000E+03   N REF5 !


 PHASE AL3NI1  %  2 .75   .25 !
    CONSTITUENT AL3NI1  :AL : NI :  !

   PARAMETER G(AL3NI1,AL:NI;0)  2.98150E+02  -48483.73+12.29913*T
  +.75*GHSERAL#+.25*GHSERNI#;   6.00000E+03   N REF7 !


 PHASE AL3NI2  %  3 3   2   1 !
    CONSTITUENT AL3NI2  :AL : AL,NI% : NI,VA% :  !

   PARAMETER G(AL3NI2,AL:AL:NI;0)  2.98150E+02  +5*GBCCAL#+GBCCNI#-39465.978
  +7.89525*T;   6.00000E+03   N REF7 !
   PARAMETER G(AL3NI2,AL:NI:NI;0)  2.98150E+02  +3*GBCCAL#+3*GBCCNI#
  -427191.9+79.21725*T;   6.00000E+03   N REF7 !
   PARAMETER G(AL3NI2,AL:AL:VA;0)  2.98150E+02  +5*GBCCAL#+30000-3*T;   
  6.00000E+03   N REF7 !
   PARAMETER G(AL3NI2,AL:NI:VA;0)  2.98150E+02  +3*GBCCAL#+2*GBCCNI#
  -357725.92+68.322*T;   6.00000E+03   N REF7 !
$ wildcards
   PARAMETER G(AL3NI2,AL:AL,NI:*;0)  2.98150E+02  -193484.18+131.79*T;   
  6.00000E+03   N REF7 !
   PARAMETER G(AL3NI2,AL:*:NI,VA;0)  2.98150E+02  -22001.7+7.0332*T;   
  6.00000E+03   N REF7 !


 PHASE AL3NI5  %  2 .375   .625 !
    CONSTITUENT AL3NI5  :AL : NI :  !

   PARAMETER G(AL3NI5,AL:NI;0)  2.98150E+02  +.375*GHSERAL#+.625*GHSERNI#
  -55507.7594+7.2648103*T;   6.00000E+03   N REF7 !


 PHASE AL4CR  %  2 4   1 !
    CONSTITUENT AL4CR  :AL : CR :  !

   PARAMETER G(AL4CR,AL:CR;0)  2.98150E+02  +4*GHSERAL#+GHSERCR#-89025
  +19.05*T;   6.00000E+03   N REF5 !


 PHASE AL8CR5_H  %  2 8   5 !
    CONSTITUENT AL8CR5_H  :AL : CR :  !

   PARAMETER G(AL8CR5_H,AL:CR;0)  2.98150E+02  +8*GHSERAL#+5*GHSERCR#-147732
  -58.5*T;   6.00000E+03   N REF5 !


 PHASE AL8CR5_L  %  2 8   5 !
    CONSTITUENT AL8CR5_L  :AL : CR :  !

   PARAMETER G(AL8CR5_L,AL:CR;0)  2.98150E+02  +8*GHSERAL#+5*GHSERCR#-229515;
     6.00000E+03   N REF5 !


 PHASE AL9CR4_H  %  2 9   4 !
    CONSTITUENT AL9CR4_H  :AL : CR :  !

   PARAMETER G(AL9CR4_H,AL:CR;0)  2.98150E+02  +9*GHSERAL#+4*GHSERCR#-134433
  -56.16*T;   6.00000E+03   N REF5 !


 PHASE AL9CR4_L  %  2 9   4 !
    CONSTITUENT AL9CR4_L  :AL : CR :  !

   PARAMETER G(AL9CR4_L,AL:CR;0)  2.98150E+02  +9*GHSERAL#+4*GHSERCR#-230750
  +16.094*T;   6.00000E+03   N REF5 !


 PHASE ALCR2  %  2 1   2 !
    CONSTITUENT ALCR2  :AL : CR :  !

   PARAMETER G(ALCR2,AL:CR;0)  2.98150E+02  +GHSERAL#+2*GHSERCR#-32700
  -8.79*T;   6.00000E+03   N REF5 !


$ THIS PHASE HAS A DISORDERED CONTRIBUTION FROM BCC_A2                  
$ TYPE_DEFINITION ' GES AMEND_PHASE_DESCRIPTION BCC_B2 DIS_PART BCC_A2,,,!
 TYPE_DEFINITION ( GES A_P_D BCC_B2 MAGNETIC  -1.0    4.00000E-01 !
 PHASE BCC_B2  %'(  3 .5   .5   3 !
    CONSTITUENT BCC_B2  :AL,CR%,NI,VA : AL,CR%,NI,VA : VA% :  !

       PARA G(BCC_B2,AL:AL:VA;0) 298.15 0; 6000 N!
   PARAMETER G(BCC_B2,CR:AL:VA;0)  2.98150E+02  -2000;   6.00000E+03   N 
  REF9 !
   PARAMETER G(BCC_B2,NI:AL:VA;0)  2.98150E+02  +.5*B2ALNI#-.5*LB2ALNI#;   
  6.00000E+03   N REF8 !
   PARAMETER G(BCC_B2,VA:AL:VA;0)  2.98150E+02  +.5*B2ALVA#-.5*LB2ALVA#;   
  6.00000E+03   N REF8 !
   PARAMETER G(BCC_B2,AL:CR:VA;0)  2.98150E+02  -2000;   6.00000E+03   N 
  REF9 !
       PARA G(BCC_B2,CR:CR:VA;0) 298.15 0; 6000 N!
   PARAMETER G(BCC_B2,NI:CR:VA;0)  2.98150E+02  4000;   6.00000E+03   N REF9 !
       PARA G(BCC_B2,VA:CR:VA;0) 298.15 0; 6000 N!
   PARAMETER G(BCC_B2,AL:NI:VA;0)  2.98150E+02  +.5*B2ALNI#-.5*LB2ALNI#;   
  6.00000E+03   N REF8 !
   PARAMETER G(BCC_B2,CR:NI:VA;0)  2.98150E+02  4000;   6.00000E+03   N REF9 !
       PARA G(BCC_B2,NI:NI:VA;0) 298.15 0; 6000 N!
   PARAMETER G(BCC_B2,VA:NI:VA;0)  2.98150E+02  +.5*B2NIVA#-.5*LB2NIVA#;   
  6.00000E+03   N REF8 !
   PARAMETER G(BCC_B2,AL:VA:VA;0)  2.98150E+02  +.5*B2ALVA#-.5*LB2ALVA#;   
  6.00000E+03   N REF8 !
       PARA G(BCC_B2,CR:VA:VA;0) 298.15 0; 6000 N!
   PARAMETER G(BCC_B2,NI:VA:VA;0)  2.98150E+02  +.5*B2NIVA#-.5*LB2NIVA#;   
  6.00000E+03   N REF8 !
       PARA G(BCC_B2,VA:VA:VA;0) 298.15 0; 6000 N!



$ THIS PHASE HAS A DISORDERED CONTRIBUTION FROM FCC_A1                  
$ TYPE_DEFINITION * GES AMEND_PHASE_DESCRIPTION FCC_L12 DIS_PART FCC_A1,,,!
 TYPE_DEFINITION + GES A_P_D FCC_L12 MAGNETIC  -3.0    2.80000E-01 !
 PHASE FCC_L12  %*+  3 .75   .25   1 !
    CONSTITUENT FCC_L12  :AL,CR,NI% : AL,CR,NI% : VA% :  !

       PARA G(FCC_L12,AL:AL:VA;0) 298.15 0; 6000 N!
   PARAMETER G(FCC_L12,CR:AL:VA;0)  2.98150E+02  +ALCR3#;   6.00000E+03   N 
  REF9 !
   PARAMETER G(FCC_L12,NI:AL:VA;0)  2.98150E+02  +ALNI3#;   6.00000E+03   N 
  REF9 !
   PARAMETER G(FCC_L12,AL:CR:VA;0)  2.98150E+02  +AL3CR#;   6.00000E+03   N 
  REF9 !
       PARA G(FCC_L12,CR:CR:VA;0) 298.15 0; 6000 N!
   PARAMETER G(FCC_L12,NI:CR:VA;0)  2.98150E+02  +CRNI3#;   6.00000E+03   N 
  REF9 !
   PARAMETER G(FCC_L12,AL:NI:VA;0)  2.98150E+02  +AL3NI#;   6.00000E+03   N 
  REF9 !
   PARAMETER G(FCC_L12,CR:NI:VA;0)  2.98150E+02  +CR3NI#;   6.00000E+03   N 
  REF9 !
       PARA G(FCC_L12,NI:NI:VA;0) 298.15 0; 6000 N!
   PARAMETER G(FCC_L12,AL,CR:AL:VA;0)  2.98150E+02  -1.5*ALCR3#+1.5*AL2CR2#
  +1.5*AL3CR#;   6.00000E+03   N REF9 !
   PARAMETER G(FCC_L12,AL,CR:AL:VA;1)  2.98150E+02  +.5*ALCR3#-1.5*AL2CR2#
  +1.5*AL3CR#;   6.00000E+03   N REF9 !
   PARAMETER G(FCC_L12,AL,CR,NI:AL:VA;0)  2.98150E+02  -1.5*ALCRNI2#
  -1.5*ALCR2NI#+ALCR3#+ALNI3#+6*AL2CRNI#-1.5*AL2CR2#-1.5*AL2NI2#-1.5*AL3CR#
  -1.5*AL3NI#;   6.00000E+03   N REF9 !
   PARAMETER G(FCC_L12,AL,NI:AL:VA;0)  2.98150E+02  -1.5*ALNI3#+1.5*AL2NI2#
  +1.5*AL3NI#;   6.00000E+03   N REF9 !
   PARAMETER G(FCC_L12,AL,NI:AL:VA;1)  2.98150E+02  +.5*ALNI3#-1.5*AL2NI2#
  +1.5*AL3NI#;   6.00000E+03   N REF9 !
   PARAMETER G(FCC_L12,CR,NI:AL:VA;0)  2.98150E+02  +1.5*ALCRNI2#
  +1.5*ALCR2NI#-1.5*ALCR3#-1.5*ALNI3#;   6.00000E+03   N REF9 !
   PARAMETER G(FCC_L12,CR,NI:AL:VA;1)  2.98150E+02  -1.5*ALCRNI2#
  +1.5*ALCR2NI#-.5*ALCR3#+.5*ALNI3#;   6.00000E+03   N REF9 !
   PARAMETER G(FCC_L12,AL,CR:CR:VA;0)  2.98150E+02  +1.5*ALCR3#+1.5*AL2CR2#
  -1.5*AL3CR#;   6.00000E+03   N REF9 !
   PARAMETER G(FCC_L12,AL,CR:CR:VA;1)  2.98150E+02  -1.5*ALCR3#+1.5*AL2CR2#
  -.5*AL3CR#;   6.00000E+03   N REF9 !
   PARAMETER G(FCC_L12,AL,CR,NI:CR:VA;0)  2.98150E+02  -1.5*ALCRNI2#
  +6*ALCR2NI#-1.5*ALCR3#-1.5*AL2CRNI#-1.5*AL2CR2#+AL3CR#+CRNI3#-1.5*CR2NI2#
  -1.5*CR3NI#;   6.00000E+03   N REF9 !
   PARAMETER G(FCC_L12,AL,NI:CR:VA;0)  2.98150E+02  +1.5*ALCRNI2#
  +1.5*AL2CRNI#-1.5*AL3CR#-1.5*CRNI3#;   6.00000E+03   N REF9 !
   PARAMETER G(FCC_L12,AL,NI:CR:VA;1)  2.98150E+02  -1.5*ALCRNI2#
  +1.5*AL2CRNI#-.5*AL3CR#+.5*CRNI3#;   6.00000E+03   N REF9 !
   PARAMETER G(FCC_L12,CR,NI:CR:VA;0)  2.98150E+02  -1.5*CRNI3#+1.5*CR2NI2#
  +1.5*CR3NI#;   6.00000E+03   N REF9 !
   PARAMETER G(FCC_L12,CR,NI:CR:VA;1)  2.98150E+02  +.5*CRNI3#-1.5*CR2NI2#
  +1.5*CR3NI#;   6.00000E+03   N REF9 !
   PARAMETER G(FCC_L12,AL,NI:NI:VA;0)  2.98150E+02  +1.5*ALNI3#+1.5*AL2NI2#
  -1.5*AL3NI#;   6.00000E+03   N REF9 !
   PARAMETER G(FCC_L12,AL,NI:NI:VA;1)  2.98150E+02  -1.5*ALNI3#+1.5*AL2NI2#
  -.5*AL3NI#;   6.00000E+03   N REF9 !
   PARAMETER G(FCC_L12,AL,CR:NI:VA;0)  2.98150E+02  +1.5*ALCR2NI#
  +1.5*AL2CRNI#-1.5*AL3NI#-1.5*CR3NI#;   6.00000E+03   N REF9 !
   PARAMETER G(FCC_L12,AL,CR:NI:VA;1)  2.98150E+02  -1.5*ALCR2NI#
  +1.5*AL2CRNI#-.5*AL3NI#+.5*CR3NI#;   6.00000E+03   N REF9 !
   PARAMETER G(FCC_L12,AL,CR,NI:NI:VA;0)  2.98150E+02  +6*ALCRNI2#
  -1.5*ALCR2NI#-1.5*ALNI3#-1.5*AL2CRNI#-1.5*AL2NI2#+AL3NI#-1.5*CRNI3#
  -1.5*CR2NI2#+CR3NI#;   6.00000E+03   N REF9 !
   PARAMETER G(FCC_L12,CR,NI:NI:VA;0)  2.98150E+02  +1.5*CRNI3#+1.5*CR2NI2#
  -1.5*CR3NI#;   6.00000E+03   N REF9 !
   PARAMETER G(FCC_L12,CR,NI:NI:VA;1)  2.98150E+02  -1.5*CRNI3#+1.5*CR2NI2#
  -.5*CR3NI#;   6.00000E+03   N REF9 !
$ wildcards
   PARAMETER G(FCC_L12,*:AL,CR:VA;0)  2.98150E+02  +L04ALCR#;   6.00000E+03  
   N REF9 !
   PARAMETER G(FCC_L12,*:AL,CR:VA;1)  2.98150E+02  +L14ALCR#;   6.00000E+03  
   N REF9 !
   PARAMETER G(FCC_L12,*:AL,NI:VA;0)  2.98150E+02  +L04ALNI#;   6.00000E+03  
   N REF9 !
   PARAMETER G(FCC_L12,*:AL,NI:VA;1)  2.98150E+02  +L14ALNI#;   6.00000E+03  
   N REF9 !
   PARAMETER G(FCC_L12,AL,CR:*:VA;0)  2.98150E+02  +3*L04ALCR#;   
  6.00000E+03   N REF9 !
   PARAMETER G(FCC_L12,AL,CR:*:VA;1)  2.98150E+02  +3*L14ALCR#;   
  6.00000E+03   N REF9 !
   PARAMETER G(FCC_L12,AL,NI:*:VA;0)  2.98150E+02  +3*L04ALNI#;   
  6.00000E+03   N REF9 !
   PARAMETER G(FCC_L12,AL,NI:*:VA;1)  2.98150E+02  +3*L14ALNI#;   
  6.00000E+03   N REF9 !
   PARAMETER G(FCC_L12,*:CR,NI:VA;0)  2.98150E+02  +L04CRNI#;   6.00000E+03  
   N REF9 !
   PARAMETER G(FCC_L12,*:CR,NI:VA;1)  2.98150E+02  +L14CRNI#;   6.00000E+03  
   N REF9 !
   PARAMETER G(FCC_L12,CR,NI:*:VA;0)  2.98150E+02  +3*L04CRNI#;   
  6.00000E+03   N REF9 !
   PARAMETER G(FCC_L12,CR,NI:*:VA;1)  2.98150E+02  +3*L14CRNI#;   
  6.00000E+03   N REF9 !


$ THIS PHASE SHOULD HAVE A DISORDERED CONTRIBUTION FROM FCC_A1
 TYPE_DEFINITION x GES A_P_D FCC_NOD MAGNETIC  -3.0    2.80000E-01 !
 PHASE FCC_NOD  %x  3 .75   .25   1 !
    CONSTITUENT FCC_NOD  :AL,CR,NI% : AL,CR,NI% : VA% :  !

       PARA G(FCC_NOD,AL:AL:VA;0) 298.15 0; 6000 N!
   PARAMETER G(FCC_NOD,CR:AL:VA;0)  2.98150E+02  +ALCR3#;   6.00000E+03   N 
  REF9 !
   PARAMETER G(FCC_NOD,NI:AL:VA;0)  2.98150E+02  +ALNI3#;   6.00000E+03   N 
  REF9 !
   PARAMETER G(FCC_NOD,AL:CR:VA;0)  2.98150E+02  +AL3CR#;   6.00000E+03   N 
  REF9 !
       PARA G(FCC_NOD,CR:CR:VA;0) 298.15 0; 6000 N!
   PARAMETER G(FCC_NOD,NI:CR:VA;0)  2.98150E+02  +CRNI3#;   6.00000E+03   N 
  REF9 !
   PARAMETER G(FCC_NOD,AL:NI:VA;0)  2.98150E+02  +AL3NI#;   6.00000E+03   N 
  REF9 !
   PARAMETER G(FCC_NOD,CR:NI:VA;0)  2.98150E+02  +CR3NI#;   6.00000E+03   N 
  REF9 !
       PARA G(FCC_NOD,NI:NI:VA;0) 298.15 0; 6000 N!

   PARAMETER G(FCC_NOD,AL,CR:AL:VA;0)  2.98150E+02  -1.5*ALCR3#+1.5*AL2CR2#
  +1.5*AL3CR#;   6.00000E+03   N REF9 !
   PARAMETER G(FCC_NOD,AL,CR:AL:VA;1)  2.98150E+02  +.5*ALCR3#-1.5*AL2CR2#
  +1.5*AL3CR#;   6.00000E+03   N REF9 !
   PARAMETER G(FCC_NOD,AL,CR,NI:AL:VA;0)  2.98150E+02  -1.5*ALCRNI2#
  -1.5*ALCR2NI#+ALCR3#+ALNI3#+6*AL2CRNI#-1.5*AL2CR2#-1.5*AL2NI2#-1.5*AL3CR#
  -1.5*AL3NI#;   6.00000E+03   N REF9 !
   PARAMETER G(FCC_NOD,AL,NI:AL:VA;0)  2.98150E+02  -1.5*ALNI3#+1.5*AL2NI2#
  +1.5*AL3NI#;   6.00000E+03   N REF9 !
   PARAMETER G(FCC_NOD,AL,NI:AL:VA;1)  2.98150E+02  +.5*ALNI3#-1.5*AL2NI2#
  +1.5*AL3NI#;   6.00000E+03   N REF9 !
   PARAMETER G(FCC_NOD,CR,NI:AL:VA;0)  2.98150E+02  +1.5*ALCRNI2#
  +1.5*ALCR2NI#-1.5*ALCR3#-1.5*ALNI3#;   6.00000E+03   N REF9 !
   PARAMETER G(FCC_NOD,CR,NI:AL:VA;1)  2.98150E+02  -1.5*ALCRNI2#
  +1.5*ALCR2NI#-.5*ALCR3#+.5*ALNI3#;   6.00000E+03   N REF9 !
   PARAMETER G(FCC_NOD,AL,CR:CR:VA;0)  2.98150E+02  +1.5*ALCR3#+1.5*AL2CR2#
  -1.5*AL3CR#;   6.00000E+03   N REF9 !
   PARAMETER G(FCC_NOD,AL,CR:CR:VA;1)  2.98150E+02  -1.5*ALCR3#+1.5*AL2CR2#
  -.5*AL3CR#;   6.00000E+03   N REF9 !
   PARAMETER G(FCC_NOD,AL,CR,NI:CR:VA;0)  2.98150E+02  -1.5*ALCRNI2#
  +6*ALCR2NI#-1.5*ALCR3#-1.5*AL2CRNI#-1.5*AL2CR2#+AL3CR#+CRNI3#-1.5*CR2NI2#
  -1.5*CR3NI#;   6.00000E+03   N REF9 !
   PARAMETER G(FCC_NOD,AL,NI:CR:VA;0)  2.98150E+02  +1.5*ALCRNI2#
  +1.5*AL2CRNI#-1.5*AL3CR#-1.5*CRNI3#;   6.00000E+03   N REF9 !
   PARAMETER G(FCC_NOD,AL,NI:CR:VA;1)  2.98150E+02  -1.5*ALCRNI2#
  +1.5*AL2CRNI#-.5*AL3CR#+.5*CRNI3#;   6.00000E+03   N REF9 !
   PARAMETER G(FCC_NOD,CR,NI:CR:VA;0)  2.98150E+02  -1.5*CRNI3#+1.5*CR2NI2#
  +1.5*CR3NI#;   6.00000E+03   N REF9 !
   PARAMETER G(FCC_NOD,CR,NI:CR:VA;1)  2.98150E+02  +.5*CRNI3#-1.5*CR2NI2#
  +1.5*CR3NI#;   6.00000E+03   N REF9 !
   PARAMETER G(FCC_NOD,AL,NI:NI:VA;0)  2.98150E+02  +1.5*ALNI3#+1.5*AL2NI2#
  -1.5*AL3NI#;   6.00000E+03   N REF9 !
   PARAMETER G(FCC_NOD,AL,NI:NI:VA;1)  2.98150E+02  -1.5*ALNI3#+1.5*AL2NI2#
  -.5*AL3NI#;   6.00000E+03   N REF9 !
   PARAMETER G(FCC_NOD,AL,CR:NI:VA;0)  2.98150E+02  +1.5*ALCR2NI#
  +1.5*AL2CRNI#-1.5*AL3NI#-1.5*CR3NI#;   6.00000E+03   N REF9 !
   PARAMETER G(FCC_NOD,AL,CR:NI:VA;1)  2.98150E+02  -1.5*ALCR2NI#
  +1.5*AL2CRNI#-.5*AL3NI#+.5*CR3NI#;   6.00000E+03   N REF9 !
   PARAMETER G(FCC_NOD,AL,CR,NI:NI:VA;0)  2.98150E+02  +6*ALCRNI2#
  -1.5*ALCR2NI#-1.5*ALNI3#-1.5*AL2CRNI#-1.5*AL2NI2#+AL3NI#-1.5*CRNI3#
  -1.5*CR2NI2#+CR3NI#;   6.00000E+03   N REF9 !
   PARAMETER G(FCC_NOD,CR,NI:NI:VA;0)  2.98150E+02  +1.5*CRNI3#+1.5*CR2NI2#
  -1.5*CR3NI#;   6.00000E+03   N REF9 !
   PARAMETER G(FCC_NOD,CR,NI:NI:VA;1)  2.98150E+02  -1.5*CRNI3#+1.5*CR2NI2#
  -.5*CR3NI#;   6.00000E+03   N REF9 !
$ wildcards
   PARAMETER G(FCC_NOD,*:AL,CR:VA;0)  2.98150E+02  +L04ALCR#;   6.00000E+03  
   N REF9 !
   PARAMETER G(FCC_NOD,*:AL,CR:VA;1)  2.98150E+02  +L14ALCR#;   6.00000E+03  
   N REF9 !
   PARAMETER G(FCC_NOD,*:AL,NI:VA;0)  2.98150E+02  +L04ALNI#;   6.00000E+03  
   N REF9 !
   PARAMETER G(FCC_NOD,*:AL,NI:VA;1)  2.98150E+02  +L14ALNI#;   6.00000E+03  
   N REF9 !
   PARAMETER G(FCC_NOD,AL,CR:*:VA;0)  2.98150E+02  +3*L04ALCR#;   
  6.00000E+03   N REF9 !
   PARAMETER G(FCC_NOD,AL,CR:*:VA;1)  2.98150E+02  +3*L14ALCR#;   
  6.00000E+03   N REF9 !
   PARAMETER G(FCC_NOD,AL,NI:*:VA;0)  2.98150E+02  +3*L04ALNI#;   
  6.00000E+03   N REF9 !
   PARAMETER G(FCC_NOD,AL,NI:*:VA;1)  2.98150E+02  +3*L14ALNI#;   
  6.00000E+03   N REF9 !
   PARAMETER G(FCC_NOD,*:CR,NI:VA;0)  2.98150E+02  +L04CRNI#;   6.00000E+03  
   N REF9 !
   PARAMETER G(FCC_NOD,*:CR,NI:VA;1)  2.98150E+02  +L14CRNI#;   6.00000E+03  
   N REF9 !
   PARAMETER G(FCC_NOD,CR,NI:*:VA;0)  2.98150E+02  +3*L04CRNI#;   
  6.00000E+03   N REF9 !
   PARAMETER G(FCC_NOD,CR,NI:*:VA;1)  2.98150E+02  +3*L14CRNI#;   
  6.00000E+03   N REF9 !


 LIST_OF_REFERENCES
 NUMBER  SOURCE
   REF10  'AL1<G> CODATA KEY VALUES SGTE ** ALUMINIUM <GAS> Cp values 
         similar in Codata Key Values and IVTAN Vol. 3'
   REF11  'AL2<G> CHATILLON(1992) Enthalpy of formation for Al1<g> taken 
         from Codata Key Values. Enthalpy of form. from TPIS dissociation 
         energy mean Value corrected with new fef from Sunil K.K. and Jordan 
         K.D. (J.Phys. Chem. 92(1988)2774) ab initio calculations.'
   REF3   'Alan Dinsdale, SGTE Data for Pure Elements, NPL Report DMA(A)195 
         Rev. August 1990'
   REF8   'N. Dupin, I. Ansara, Z. metallkd., Vol 90 (1999) p 76-85; Al-Ni'
   REF12  'CR1<G> T.C.R.A.S. Class: 1 CHROMIUM <GAS>'
   REF13  'CR2<G> T.C.R.A.S. Class: 6'
   REF2   'Alan Dinsdale, SGTE Data for Pure Elements, NPL Report DMA(A)195 
         September 1989'
   REF9   ' N. Dupin, I. Ansara, B. Sundman Thermodynamic Re-Assessment of 
         the Ternary System Al-Cr-Ni, Calphad, 25 (2), 279-298 (2001); Al-Cr
         -Ni'
   REF14  'NI1<G> T.C.R.A.S Class: 1 Data provided by T.C.R.A.S. October 1996'
   REF15  'NI2<G> T.C.R.A.S Class: 5 Data provided by T.C.R.A.S. October 1996'
   REF5   'Nigel Saunders, 1991, based on N. Saunders, V.G. Rivlin Z. 
         metallkde, 78 (11), 795-801 (1987); Al-Cr'
   REF7   'N. Dupin, Thesis, LTPCM, France, 1995; Al-Ni, also in I. Ansara, 
         N. Dupin, H.L. Lukas, B. SUndman J. Alloys Compds, 247 (1-2), 20-30 
         (1997)'
   REF4   'Byeong-Joo Lee, unpublished revision (1991); C-Cr-Fe-Ni'
   REF1   'A. Dinsdale, T. Chart, MTDS NPL, Unpublished work (1986); CR-NI'
  ! 
 
