
$ Database file written 2012- 2-11
$ From database: SSOL2                   
 ELEMENT /-   ELECTRON_GAS              0.0000E+00  0.0000E+00  0.0000E+00!
 ELEMENT VA   VACUUM                    0.0000E+00  0.0000E+00  0.0000E+00!
 ELEMENT C    GRAPHITE                  1.2011E+01  1.0540E+03  5.7400E+00!
 ELEMENT CR   BCC_A2                    5.1996E+01  4.0500E+03  2.3560E+01!
 ELEMENT FE   BCC_A2                    5.5847E+01  4.4890E+03  2.7280E+01!
 ELEMENT MO   BCC_A2                    9.5940E+01  4.5890E+03  2.8560E+01!
 ELEMENT SI   DIAMOND_A4                2.8085E+01  3.2175E+03  1.8820E+01!
 ELEMENT V    BCC_A2                    5.0941E+01  4.5070E+03  3.0890E+01!
 
 SPECIES C1                          C!
 SPECIES C2                          C2!
 SPECIES C3                          C3!
 SPECIES C4                          C4!
 SPECIES C5                          C5!
 SPECIES C6                          C6!
 SPECIES C7                          C7!
 SPECIES V1C1                        V1C1!
 
 FUNCTION GHSERCC    2.98150E+02  -17368.441+170.73*T-24.3*T*LN(T)
     -4.723E-04*T**2+2562600*T**(-1)-2.643E+08*T**(-2)+1.2E+10*T**(-3);   
     6.00000E+03   N !
 FUNCTION GPCLIQ     2.98150E+02  +YCLIQ#*EXP(ZCLIQ#);   6.00000E+03   N !
 FUNCTION GHSERCR    2.98150E+02  -8856.94+157.48*T-26.908*T*LN(T)
     +.00189435*T**2-1.47721E-06*T**3+139250*T**(-1);  2.18000E+03  Y
      -34869.344+344.18*T-50*T*LN(T)-2.88526E+32*T**(-9);  6.00000E+03  N !
 FUNCTION GPCRLIQ    2.98150E+02  +YCRLIQ#*EXP(ZCRLIQ#);   6.00000E+03   N !
 FUNCTION GFELIQ     2.98150E+02  +12040.17-6.55843*T-3.6751551E-21*T**7
     +GHSERFE#;  1.81100E+03  Y
      -10839.7+291.302*T-46*T*LN(T);  6.00000E+03  N !
 FUNCTION GPFELIQ    2.98150E+02  +YFELIQ#*EXP(ZFELIQ#);   6.00000E+03   N !
 FUNCTION GHSERMO    2.98150E+02  -7746.302+131.9197*T-23.56414*T*LN(T)
     -.003443396*T**2+5.66283E-07*T**3+65812*T**(-1)-1.30927E-10*T**4;  
     2.89600E+03  Y
      -30556.41+283.559746*T-42.63829*T*LN(T)-4.849315E+33*T**(-9);  
     5.00000E+03  N !
 FUNCTION GPMOLIQ    2.98150E+02  +YMOLIQ#*EXP(ZMOLIQ#);   6.00000E+03   N !
 FUNCTION GHSERSI    2.98150E+02  -8162.609+137.227259*T-22.8317533*T*LN(T)
     -.001912904*T**2-3.552E-09*T**3+176667*T**(-1);  1.68700E+03  Y
      -9457.642+167.271767*T-27.196*T*LN(T)-4.20369E+30*T**(-9);  
     3.60000E+03  N !
 FUNCTION GHSERVV    2.98150E+02  -7930.43+133.346053*T-24.134*T*LN(T)
     -.003098*T**2+1.2175E-07*T**3+69460*T**(-1);  7.90000E+02  Y
      -7967.842+143.291093*T-25.9*T*LN(T)+6.25E-05*T**2-6.8E-07*T**3;  
     2.18300E+03  Y
      -41689.864+321.140783*T-47.43*T*LN(T)+6.44389E+31*T**(-9);  
     4.00000E+03  N !
 FUNCTION GPCRBCC    2.98150E+02  +YCRBCC#*EXP(ZCRBCC#);   6.00000E+03   N !
 FUNCTION GPCGRA     2.98150E+02  +YCGRA#*EXP(ZCGRA#);   6.00000E+03   N !
 FUNCTION GHSERFE    2.98150E+02  +1225.7+124.134*T-23.5143*T*LN(T)
     -.00439752*T**2-5.8927E-08*T**3+77359*T**(-1);  1.81100E+03  Y
      -25383.581+299.31255*T-46*T*LN(T)+2.29603E+31*T**(-9);  6.00000E+03  N 
     !
 FUNCTION GPFEBCC    2.98150E+02  +YFEBCC#*EXP(ZFEBCC#);   6.00000E+03   N !
 FUNCTION GSIBCC     2.98150E+02  +47000-22.5*T+GHSERSI#;   6.00000E+03   N !
 FUNCTION GPMOBCC    2.98150E+02  +YMOBCC#*EXP(ZMOBCC#);   6.00000E+03   N !
 FUNCTION GFECEM     2.98150E+02  -10745+706.04*T-120.6*T*LN(T)+GPCEM1#;   
     6.00000E+03   N !
 FUNCTION GCRFCC     2.98150E+02  +7284+.163*T+GHSERCR#;   6.00000E+03   N !
 FUNCTION GFEFCC     2.98150E+02  -1462.4+8.282*T-1.15*T*LN(T)+6.4E-04*T**2
     +GHSERFE#;  1.81100E+03  Y
      -27098.266+300.25256*T-46*T*LN(T)+2.78854E+31*T**(-9);  6.00000E+03  N 
     !
 FUNCTION GMOFCC     2.98150E+02  +15200+.63*T+GHSERMO#;   6.00000E+03   N !
 FUNCTION GPCDIA     2.98150E+02  +YCDIA#*EXP(ZCDIA#);   6.00000E+03   N !
 FUNCTION GPCFCC     2.98150E+02  +YCFCC#*EXP(ZFEFCC#);   6.00000E+03   N !
 FUNCTION GPFEFCC    2.98150E+02  +YFEFCC#*EXP(ZFEFCC#);   6.00000E+03   N !
 FUNCTION GHSERVZ    2.98150E+02  -7930.43+133.346053*T-24.134*T*LN(T)
     -.003098*T**2+1.2175E-07*T**3+69460*T**(-1);  7.90000E+02  Y
      -7967.842+143.291093*T-25.9*T*LN(T)+6.25E-05*T**2-6.8E-07*T**3;  
     4.00000E+03  Y
      -41689.864+321.140783*T-47.43*T*LN(T)+6.44389E+31*T**(-9);  
     6.00000E+03  N !
 FUNCTION GPFEHCP    2.98150E+02  +YFEHCP#*EXP(ZFEHCP#);   6.00000E+03   N !
 FUNCTION GCRM23C6   2.98150E+02  -521983+3622.24*T-620.965*T*LN(T)
     -.126431*T**2;   6.00000E+03   N !
 FUNCTION GFEM23C6   2.98150E+02  +7.666667*GFECEM#-1.666667*GHSERCC#+66920
     -40*T;   6.00000E+03   N !
 FUNCTION GVM23C6    2.98150E+02  -990367+4330.63*T-728.829*T*LN(T)
     +5003425*T**(-1);   6.00000E+03   N !
 FUNCTION GCRM3C2    2.98150E+02  -100823.8+530.66989*T-89.6694*T*LN(T)
     -.0301188*T**2;   6.00000E+03   N !
 FUNCTION GCRM7C3    2.98150E+02  -201690+1103.128*T-190.177*T*LN(T)
     -.0578207*T**2;   6.00000E+03   N !
 FUNCTION GPMU1      2.98150E+02  +8.72E-05*P;   6.00000E+03   N !
 FUNCTION GPMU2      2.98150E+02  +1.04E-04*P;   6.00000E+03   N !
 FUNCTION GPR1       2.98150E+02  +3.81E-04*P;   6.00000E+03   N !
 FUNCTION GPR2       2.98150E+02  +4.33E-04*P;   6.00000E+03   N !
 FUNCTION GPSIG1     2.98150E+02  +1.09E-04*P;   6.00000E+03   N !
 FUNCTION GPSIG2     2.98150E+02  +1.117E-04*P;   6.00000E+03   N !
 FUNCTION L0BCC      2.98150E+02  -27809+11.62*T;   6.00000E+03   N !
 FUNCTION FESIW1     2.98150E+02  +1260*R#;   6.00000E+03   N !
 FUNCTION L1BCC      2.98150E+02  -11544;   6.00000E+03   N !
 FUNCTION L2BCC      2.98150E+02  3890;   6.00000E+03   N !
 FUNCTION ETCFESI    2.98150E+02  63;   6.00000E+03   N !
 FUNCTION YCLIQ      2.98150E+02  +VCLIQ#*EXP(-ECLIQ#);   6.00000E+03   N !
 FUNCTION ZCLIQ      2.98150E+02  +1*LN(XCLIQ#);   6.00000E+03   N !
 FUNCTION YCRLIQ     2.98150E+02  +VCRLIQ#*EXP(-ECRLIQ#);   6.00000E+03   N !
 FUNCTION ZCRLIQ     2.98150E+02  +1*LN(XCRLIQ#);   6.00000E+03   N !
 FUNCTION YFELIQ     2.98150E+02  +VFELIQ#*EXP(-EFELIQ#);   6.00000E+03   N !
 FUNCTION ZFELIQ     2.98150E+02  +1*LN(XFELIQ#);   6.00000E+03   N !
 FUNCTION YMOLIQ     2.98150E+02  +VMOLIQ#*EXP(-EMOLIQ#);   6.00000E+03   N !
 FUNCTION ZMOLIQ     2.98150E+02  +1*LN(XMOLIQ#);   6.00000E+03   N !
 FUNCTION YCRBCC     2.98150E+02  +VCRBCC#*EXP(-ECRBCC#);   6.00000E+03   N !
 FUNCTION ZCRBCC     2.98150E+02  +1*LN(XCRBCC#);   6.00000E+03   N !
 FUNCTION YCGRA      2.98150E+02  +VCGRA#*EXP(-ECGRA#);   6.00000E+03   N !
 FUNCTION ZCGRA      2.98150E+02  +1*LN(XCGRA#);   6.00000E+03   N !
 FUNCTION YFEBCC     2.98150E+02  +VFEBCC#*EXP(-EFEBCC#);   6.00000E+03   N !
 FUNCTION ZFEBCC     2.98150E+02  +1*LN(XFEBCC#);   6.00000E+03   N !
 FUNCTION YMOBCC     2.98150E+02  +VMOBCC#*EXP(-EMOBCC#);   6.00000E+03   N !
 FUNCTION ZMOBCC     2.98150E+02  +1*LN(XMOBCC#);   6.00000E+03   N !
 FUNCTION GPCEM1     2.98150E+02  +VCEM1#*P;   6.00000E+03   N !
 FUNCTION YCDIA      2.98150E+02  +VCDIA#*EXP(-ECDIA#);   6.00000E+03   N !
 FUNCTION ZCDIA      2.98150E+02  +1*LN(XCDIA#);   6.00000E+03   N !
 FUNCTION YCFCC      2.98150E+02  +VCFCC#*EXP(-EFEFCC#);   6.00000E+03   N !
 FUNCTION ZFEFCC     2.98150E+02  +1*LN(XFEFCC#);   6.00000E+03   N !
 FUNCTION YFEFCC     2.98150E+02  +VFEFCC#*EXP(-EFEFCC#);   6.00000E+03   N !
 FUNCTION YFEHCP     2.98150E+02  +VFEHCP#*EXP(-EFEHCP#);   6.00000E+03   N !
 FUNCTION ZFEHCP     2.98150E+02  +1*LN(XFEHCP#);   6.00000E+03   N !
 FUNCTION VCLIQ      2.98150E+02  +7.626E-06*EXP(ACLIQ#);   6.00000E+03   N !
 FUNCTION ECLIQ      2.98150E+02  +1*LN(CCLIQ#);   6.00000E+03   N !
 FUNCTION XCLIQ      2.98150E+02  +1*EXP(.5*DCLIQ#)-1;   6.00000E+03   N !
 FUNCTION VCRLIQ     2.98150E+02  +7.653E-06*EXP(ACRLIQ#);   6.00000E+03   N 
     !
 FUNCTION ECRLIQ     2.98150E+02  +1*LN(CCRLIQ#);   6.00000E+03   N !
 FUNCTION XCRLIQ     2.98150E+02  +1*EXP(.8*DCRLIQ#)-1;   6.00000E+03   N !
 FUNCTION VFELIQ     2.98150E+02  +6.46677E-06*EXP(AFELIQ#);   6.00000E+03   
     N !
 FUNCTION EFELIQ     2.98150E+02  +1*LN(CFELIQ#);   6.00000E+03   N !
 FUNCTION XFELIQ     2.98150E+02  +1*EXP(.8484467*DFELIQ#)-1;   6.00000E+03  
      N !
 FUNCTION VMOLIQ     2.98150E+02  +9.75079E-06*EXP(AMOLIQ#);   6.00000E+03   
     N !
 FUNCTION EMOLIQ     2.98150E+02  +1*LN(CMOLIQ#);   6.00000E+03   N !
 FUNCTION XMOLIQ     2.98150E+02  +1*EXP(.6923076*DMOBCC#)-1;   6.00000E+03  
      N !
 FUNCTION VCRBCC     2.98150E+02  +7.188E-06*EXP(ACRBCC#);   6.00000E+03   N 
     !
 FUNCTION ECRBCC     2.98150E+02  +1*LN(CCRBCC#);   6.00000E+03   N !
 FUNCTION XCRBCC     2.98150E+02  +1*EXP(.8*DCRBCC#)-1;   6.00000E+03   N !
 FUNCTION VCGRA      2.98150E+02  +5.259E-06*EXP(ACGRA#);   6.00000E+03   N !
 FUNCTION ECGRA      2.98150E+02  +1*LN(CCGRA#);   6.00000E+03   N !
 FUNCTION XCGRA      2.98150E+02  +1*EXP(.9166667*DCGRA#)-1;   6.00000E+03   
     N !
 FUNCTION VFEBCC     2.98150E+02  +7.042095E-06*EXP(AFEBCC#);   6.00000E+03  
      N !
 FUNCTION EFEBCC     2.98150E+02  +1*LN(CFEBCC#);   6.00000E+03   N !
 FUNCTION XFEBCC     2.98150E+02  +1*EXP(.7874195*DFEBCC#)-1;   6.00000E+03  
      N !
 FUNCTION VMOBCC     2.98150E+02  +9.34372E-06*EXP(AMOBCC#);   6.00000E+03   
     N !
 FUNCTION EMOBCC     2.98150E+02  +1*LN(CMOBCC#);   6.00000E+03   N !
 FUNCTION XMOBCC     2.98150E+02  +1*EXP(.6923076*DMOBCC#)-1;   6.00000E+03  
      N !
 FUNCTION VCEM1      2.98150E+02  +2.339E-05*EXP(ACEM1#);   6.00000E+03   N !
 FUNCTION VCDIA      2.98150E+02  +3.412E-06*EXP(ACDIA#);   6.00000E+03   N !
 FUNCTION ECDIA      2.98150E+02  +1*LN(CCDIA#);   6.00000E+03   N !
 FUNCTION XCDIA      2.98150E+02  +1*EXP(.8*DCDIA#)-1;   6.00000E+03   N !
 FUNCTION VCFCC      2.98150E+02  +1.031E-05*EXP(ACFCC#);   6.00000E+03   N !
 FUNCTION EFEFCC     2.98150E+02  +1*LN(CFEFCC#);   6.00000E+03   N !
 FUNCTION XFEFCC     2.98150E+02  +1*EXP(.8064454*DFEFCC#)-1;   6.00000E+03  
      N !
 FUNCTION VFEFCC     2.98150E+02  +6.688726E-06*EXP(AFEFCC#);   6.00000E+03  
      N !
 FUNCTION VFEHCP     2.98150E+02  +6.59121E-06*EXP(AFEHCP#);   6.00000E+03   
     N !
 FUNCTION EFEHCP     2.98150E+02  +1*LN(CFEHCP#);   6.00000E+03   N !
 FUNCTION XFEHCP     2.98150E+02  +1*EXP(.8064454*DFEHCP#)-1;   6.00000E+03  
      N !
 FUNCTION ACLIQ      2.98150E+02  +2.32E-05*T+2.85E-09*T**2;   6.00000E+03   
     N !
 FUNCTION CCLIQ      2.98150E+02  1.6E-10;   6.00000E+03   N !
 FUNCTION DCLIQ      2.98150E+02  +1*LN(BCLIQ#);   6.00000E+03   N !
 FUNCTION ACRLIQ     2.98150E+02  +1.7E-05*T+9.2E-09*T**2;   6.00000E+03   N 
     !
 FUNCTION CCRLIQ     2.98150E+02  3.72E-11;   6.00000E+03   N !
 FUNCTION DCRLIQ     2.98150E+02  +1*LN(BCRLIQ#);   6.00000E+03   N !
 FUNCTION AFELIQ     2.98150E+02  +1.135E-04*T;   6.00000E+03   N !
 FUNCTION CFELIQ     2.98150E+02  +4.22534787E-12+2.71569924E-14*T;   
     6.00000E+03   N !
 FUNCTION DFELIQ     2.98150E+02  +1*LN(BFELIQ#);   6.00000E+03   N !
 FUNCTION AMOLIQ     2.98150E+02  +1.4378E-05*T+2.33031E-10*T**2
     +1.14687E-12*T**3;   6.00000E+03   N !
 FUNCTION CMOLIQ     2.98150E+02  +7.88107E-12+3.375E-16*T+8.775E-20*T**2;   
     6.00000E+03   N !
 FUNCTION DMOBCC     2.98150E+02  +1*LN(BMOBCC#);   6.00000E+03   N !
 FUNCTION ACRBCC     2.98150E+02  +1.7E-05*T+9.2E-09*T**2;   6.00000E+03   N 
     !
 FUNCTION CCRBCC     2.98150E+02  2.08E-11;   6.00000E+03   N !
 FUNCTION DCRBCC     2.98150E+02  +1*LN(BCRBCC#);   6.00000E+03   N !
 FUNCTION ACGRA      2.98150E+02  +2.32E-05*T+2.85E-09*T**2;   6.00000E+03   
     N !
 FUNCTION CCGRA      2.98150E+02  3.3E-10;   6.00000E+03   N !
 FUNCTION DCGRA      2.98150E+02  +1*LN(BCGRA#);   6.00000E+03   N !
 FUNCTION AFEBCC     2.98150E+02  +2.3987E-05*T+1.2845E-08*T**2;   
     6.00000E+03   N !
 FUNCTION CFEBCC     2.98150E+02  +2.20949565E-11+2.41329523E-16*T;   
     6.00000E+03   N !
 FUNCTION DFEBCC     2.98150E+02  +1*LN(BFEBCC#);   6.00000E+03   N !
 FUNCTION AMOBCC     2.98150E+02  +1.4378E-05*T+2.33031E-10*T**2
     +1.14687E-12*T**3;   6.00000E+03   N !
 FUNCTION CMOBCC     2.98150E+02  +7.88107E-12+3.375E-16*T+8.775E-20*T**2;   
     6.00000E+03   N !
 FUNCTION ACEM1      2.98150E+02  -1.36E-05*T+4E-08*T**2;   6.00000E+03   N !
 FUNCTION ACDIA      2.98150E+02  +2.43E-06*T+5E-09*T**2;   6.00000E+03   N !
 FUNCTION CCDIA      2.98150E+02  6.8E-12;   6.00000E+03   N !
 FUNCTION DCDIA      2.98150E+02  +1*LN(BCDIA#);   6.00000E+03   N !
 FUNCTION ACFCC      2.98150E+02  +1.44E-04*T;   6.00000E+03   N !
 FUNCTION CFEFCC     2.98150E+02  +2.62285341E-11+2.71455808E-16*T;   
     6.00000E+03   N !
 FUNCTION DFEFCC     2.98150E+02  +1*LN(BFEFCC#);   6.00000E+03   N !
 FUNCTION AFEFCC     2.98150E+02  +7.3097E-05*T;   6.00000E+03   N !
 FUNCTION AFEHCP     2.98150E+02  +7.3646E-05*T;   6.00000E+03   N !
 FUNCTION CFEHCP     2.98150E+02  +2.62285341E-11+2.71455808E-16*T;   
     6.00000E+03   N !
 FUNCTION DFEHCP     2.98150E+02  +1*LN(BFEHCP#);   6.00000E+03   N !
 FUNCTION BCLIQ      2.98150E+02  +1+3.2E-10*P;   6.00000E+03   N !
 FUNCTION BCRLIQ     2.98150E+02  +1+4.65E-11*P;   6.00000E+03   N !
 FUNCTION BFELIQ     2.98150E+02  +1+4.98009787E-12*P+3.20078924E-14*T*P;   
     6.00000E+03   N !
 FUNCTION BMOBCC     2.98150E+02  +1+1.13837E-11*P+4.875E-16*T*P
     +1.2675E-19*T**2*P;   6.00000E+03   N !
 FUNCTION BCRBCC     2.98150E+02  +1+2.6E-11*P;   6.00000E+03   N !
 FUNCTION BCGRA      2.98150E+02  +1+3.6E-10*P;   6.00000E+03   N !
 FUNCTION BFEBCC     2.98150E+02  +1+2.80599565E-11*P+3.06481523E-16*T*P;   
     6.00000E+03   N !
 FUNCTION BCDIA      2.98150E+02  +1+8.5E-12*P;   6.00000E+03   N !
 FUNCTION BFEFCC     2.98150E+02  +1+3.25236341E-11*P+3.36607808E-16*T*P;   
     6.00000E+03   N !
 FUNCTION BFEHCP     2.98150E+02  +1+3.25236341E-11*P+3.36607808E-16*T*P;   
     6.00000E+03   N !
 FUNCTION UN_ASS 298.15 0; 300 N !
 
 TYPE_DEFINITION % SEQ *!
 DEFINE_SYSTEM_DEFAULT ELEMENT 2 !
 DEFAULT_COMMAND DEF_SYS_ELEMENT VA /- !


 PHASE LIQUID:L %  1  1.0  !
    CONSTITUENT LIQUID:L :C,CR,FE,MO,SI,V :  !

   PARAMETER G(LIQUID,C;0)  2.98150E+02  +117369-24.63*T+GHSERCC#+GPCLIQ#;   
  6.00000E+03   N REF283 !
   PARAMETER G(LIQUID,CR;0)  2.98150E+02  +24339.955-11.420225*T
  +2.37615E-21*T**7+GHSERCR#+GPCRLIQ#;  2.18000E+03  Y
   +18409.36-8.563683*T+2.88526E+32*T**(-9)+GHSERCR#+GPCRLIQ#;  6.00000E+03  
  N REF283 !
   PARAMETER G(LIQUID,FE;0)  2.98150E+02  +GFELIQ#+GPFELIQ#;   6.00000E+03   
  N REF283 !
   PARAMETER G(LIQUID,MO;0)  2.98150E+02  +41831.347-14.694912*T
  +4.24519E-22*T**7+GHSERMO#+GPMOLIQ#;  2.89600E+03  Y
   +34095.373-11.890046*T+4.849315E+33*T**(-9)+GHSERMO#+GPMOLIQ#;  
  5.00000E+03  N REF283 !
   PARAMETER G(LIQUID,SI;0)  2.98150E+02  +50696.36-30.099439*T
  +2.09307E-21*T**7+GHSERSI#;  1.68700E+03  Y
   +49828.165-29.559069*T+4.20369E+30*T**(-9)+GHSERSI#;  3.60000E+03  N 
  REF283 !
   PARAMETER G(LIQUID,V;0)  2.98150E+02  +20764.117-9.455552*T
  -5.19136E-22*T**7+GHSERVV#;  7.90000E+02  Y
   +20764.117-9.455552*T-5.19136E-22*T**7+GHSERVV#;  2.18300E+03  Y
   +22072.354-10.0848*T-6.44389E+31*T**(-9)+GHSERVV#;  4.00000E+03  N REF283 !
   PARAMETER G(LIQUID,C,CR;0)  2.98150E+02  -90526-25.9116*T;   6.00000E+03  
   N REF101 !
   PARAMETER G(LIQUID,C,CR;1)  2.98150E+02  80000;   6.00000E+03   N REF101 !
   PARAMETER G(LIQUID,C,CR;2)  2.98150E+02  80000;   6.00000E+03   N REF101 !
   PARAMETER G(LIQUID,C,CR,FE;0)  2.98150E+02  -496063;   6.00000E+03   N 
  REF322 !
   PARAMETER G(LIQUID,C,CR,FE;1)  2.98150E+02  57990;   6.00000E+03   N 
  REF322 !
   PARAMETER G(LIQUID,C,CR,FE;2)  2.98150E+02  61404;   6.00000E+03   N 
  REF322 !
   PARAMETER G(LIQUID,C,CR,V;0)  2.98150E+02  -769497;   6.00000E+03   N 
  REF324 !
   PARAMETER G(LIQUID,C,CR,V;1)  2.98150E+02  263981;   6.00000E+03   N 
  REF324 !
   PARAMETER G(LIQUID,C,CR,V;2)  2.98150E+02  3599;   6.00000E+03   N REF324 !
   PARAMETER G(LIQUID,C,FE;0)  2.98150E+02  -124320+28.5*T;   6.00000E+03   
  N REF190 !
   PARAMETER G(LIQUID,C,FE;1)  2.98150E+02  19300;   6.00000E+03   N REF190 !
   PARAMETER G(LIQUID,C,FE;2)  2.98150E+02  +49260-19*T;   6.00000E+03   N 
  REF190 !
   PARAMETER G(LIQUID,C,FE,SI;0)  2.98150E+02  445740;   6.00000E+03   N 
  REF99 !
   PARAMETER G(LIQUID,C,FE,SI;1)  2.98150E+02  -6065-35.33*T;   6.00000E+03  
   N REF99 !
   PARAMETER G(LIQUID,C,FE,SI;2)  2.98150E+02  +2545792-1450.6*T;   
  6.00000E+03   N REF99 !
   PARAMETER G(LIQUID,C,FE,V;0)  2.98150E+02  -60000;   6.00000E+03   N 
  REF270 !
   PARAMETER G(LIQUID,C,FE,V;1)  2.98150E+02  -60000;   6.00000E+03   N 
  REF270 !
   PARAMETER G(LIQUID,C,FE,V;2)  2.98150E+02  100000;   6.00000E+03   N 
  REF270 !
   PARAMETER G(LIQUID,C,FE,MO;0)  2.98150E+02  -37800;   6.00000E+03   N 
  REF113 !
   PARAMETER G(LIQUID,C,MO;0)  2.98150E+02  -217800+38.41*T;   6.00000E+03   
  N REF104 !
   PARAMETER G(LIQUID,C,MO;1)  2.98150E+02  30000;   6.00000E+03   N REF104 !
   PARAMETER G(LIQUID,C,MO;2)  2.98150E+02  47000;   6.00000E+03   N REF104 !
   PARAMETER G(LIQUID,C,SI;0)  2.98150E+02  -133000+30.97*T;   6.00000E+03   
  N REF99 !
   PARAMETER G(LIQUID,C,V;0)  2.98150E+02  -284196+38.952*T;   6.00000E+03   
  N REF256 !
   PARAMETER G(LIQUID,C,V;1)  2.98150E+02  +96335-17.775*T;   6.00000E+03   
  N REF256 !
   PARAMETER G(LIQUID,C,V;2)  2.98150E+02  102050;   6.00000E+03   N REF256 !
   PARAMETER G(LIQUID,CR,FE;0)  2.98150E+02  -14550+6.65*T;   6.00000E+03   
  N REF107 !
   PARAMETER G(LIQUID,CR,FE,V;0)  2.98150E+02  14881;   6.00000E+03   N 
  REF323 !
   PARAMETER G(LIQUID,CR,FE,V;1)  2.98150E+02  17968;   6.00000E+03   N 
  REF323 !
   PARAMETER G(LIQUID,CR,FE,V;2)  2.98150E+02  -7692;   6.00000E+03   N 
  REF323 !
   PARAMETER G(LIQUID,CR,MO;0)  2.98150E+02  +15810-6.714*T;   6.00000E+03   
  N REF123 !
   PARAMETER G(LIQUID,CR,MO;1)  2.98150E+02  -6220;   6.00000E+03   N REF123 !
   PARAMETER G(LIQUID,CR,SI;0)  2.98150E+02  -120157.52+16.63891*T;   
  6.00000E+03   N REF90 !
   PARAMETER G(LIQUID,CR,SI;1)  2.98150E+02  -49502.35+13.76967*T;   
  6.00000E+03   N REF90 !
   PARAMETER G(LIQUID,CR,V;0)  2.98150E+02  -9874-2.6964*T;   6.00000E+03   
  N REF323 !
   PARAMETER G(LIQUID,CR,V;1)  2.98150E+02  -1720-2.5237*T;   6.00000E+03   
  N REF323 !
   PARAMETER G(LIQUID,FE,MO;0)  2.98150E+02  -6973-.37*T;   6.00000E+03   N 
  REF10 !
   PARAMETER G(LIQUID,FE,MO;1)  2.98150E+02  -9424+4.502*T;   6.00000E+03   
  N REF10 !
   PARAMETER G(LIQUID,FE,SI;0)  2.98150E+02  -164435+41.977*T;   6.00000E+03 
    N REF99 !
   PARAMETER G(LIQUID,FE,SI;1)  2.98150E+02  -21.523*T;   6.00000E+03   N 
  REF99 !
   PARAMETER G(LIQUID,FE,SI;2)  2.98150E+02  -18821+22.07*T;   6.00000E+03   
  N REF99 !
   PARAMETER G(LIQUID,FE,SI;3)  2.98150E+02  9696;   6.00000E+03   N REF99 !
   PARAMETER G(LIQUID,FE,V;0)  2.98150E+02  -34679+1.895*T;   6.00000E+03   
  N REF269 !
   PARAMETER G(LIQUID,FE,V;1)  2.98150E+02  10209;   6.00000E+03   N REF269 !


 TYPE_DEFINITION & GES A_P_D BCC_A2 MAGNETIC  -1.0    4.00000E-01 !
 PHASE BCC_A2  %&  2 1   3 !
    CONSTITUENT BCC_A2  :CR%,FE%,MO%,SI,V% : C,VA% :  !

   PARAMETER G(BCC_A2,CR:C;0)  2.98150E+02  +GHSERCR#+3*GHSERCC#+GPCRBCC#
  +3*GPCGRA#+416000;   6.00000E+03   N REF101 !
   PARAMETER TC(BCC_A2,CR:C;0)  2.98150E+02  -311.5;   6.00000E+03   N 
  REF101 !
   PARAMETER BMAGN(BCC_A2,CR:C;0)  2.98150E+02  -.008;   6.00000E+03   N 
  REF101 !
   PARAMETER G(BCC_A2,FE:C;0)  2.98150E+02  +322050+75.667*T+GHSERFE#
  +GPFEBCC#+3*GHSERCC#+3*GPCGRA#;   6.00000E+03   N REF190 !
   PARAMETER TC(BCC_A2,FE:C;0)  2.98150E+02  1043;   6.00000E+03   N REF190 !
   PARAMETER BMAGN(BCC_A2,FE:C;0)  2.98150E+02  2.22;   6.00000E+03   N 
  REF190 !
   PARAMETER G(BCC_A2,MO:C;0)  2.98150E+02  +331000-75*T+GHSERMO#+3*GHSERCC#;
     6.00000E+03   N REF104 !
   PARAMETER G(BCC_A2,SI:C;0)  2.98150E+02  +322050-75.667*T+GSIBCC#
  +3*GHSERCC#+3*GPCGRA#;   6.00000E+03   N REF98 !
   PARAMETER G(BCC_A2,V:C;0)  2.98150E+02  +108449+GHSERVV#+3*GHSERCC#;   
  6.00000E+03   N REF256 !
   PARAMETER G(BCC_A2,CR:VA;0)  2.98150E+02  +GHSERCR#+GPCRBCC#;   
  6.00000E+03   N REF283 !
   PARAMETER TC(BCC_A2,CR:VA;0)  2.98150E+02  -311.5;   6.00000E+03   N 
  REF281 !
   PARAMETER BMAGN(BCC_A2,CR:VA;0)  2.98150E+02  -.01;   6.00000E+03   N 
  REF281 !
   PARAMETER G(BCC_A2,FE:VA;0)  2.98150E+02  +GHSERFE#+GPFEBCC#;   
  6.00000E+03   N REF283 !
   PARAMETER TC(BCC_A2,FE:VA;0)  2.98150E+02  1043;   6.00000E+03   N REF281 !
   PARAMETER BMAGN(BCC_A2,FE:VA;0)  2.98150E+02  2.22;   6.00000E+03   N 
  REF281 !
   PARAMETER G(BCC_A2,MO:VA;0)  2.98150E+02  +GHSERMO#+GPMOBCC#;  
  5.00000E+03  N REF283 !
   PARAMETER G(BCC_A2,SI:VA;0)  2.98150E+02  +GSIBCC#;  3.60000E+03  N 
  REF283 !
   PARAMETER G(BCC_A2,V:VA;0)  2.98150E+02  +GHSERVV#;  4.00000E+03  N 
  REF283 !
   PARAMETER G(BCC_A2,CR,FE:C;0)  2.98150E+02  -1250000+667.7*T;   
  6.00000E+03   N REF322 !
   PARAMETER TC(BCC_A2,CR,FE:C;0)  2.98150E+02  1650;   6.00000E+03   N 
  REF102 !
   PARAMETER TC(BCC_A2,CR,FE:C;1)  2.98150E+02  550;   6.00000E+03   N 
  REF102 !
   PARAMETER BMAGN(BCC_A2,CR,FE:C;0)  2.98150E+02  -.85;   6.00000E+03   N 
  REF102 !
   PARAMETER G(BCC_A2,CR:C,VA;0)  2.98150E+02  -190*T;   6.00000E+03   N 
  REF101 !
   PARAMETER G(BCC_A2,FE,MO:C;0)  2.98150E+02  -1250000+667.7*T;   
  6.00000E+03   N REF325 !
   PARAMETER TC(BCC_A2,FE,MO:C;0)  2.98150E+02  335;   6.00000E+03   N 
  REF104 !
   PARAMETER TC(BCC_A2,FE,MO:C;1)  2.98150E+02  526;   6.00000E+03   N 
  REF104 !
   PARAMETER G(BCC_A2,FE,SI:C;0)  2.98150E+02  78866;   6.00000E+03   N 
  REF99 !
   PARAMETER G(BCC_A2,FE,V:C;0)  2.98150E+02  -23674+.465*T;   6.00000E+03   
  N REF270 !
   PARAMETER G(BCC_A2,FE,V:C;1)  2.98150E+02  8283;   6.00000E+03   N REF270 !
   PARAMETER G(BCC_A2,FE:C,VA;0)  2.98150E+02  -190*T;   6.00000E+03   N 
  REF190 !
   PARAMETER G(BCC_A2,V:C,VA;0)  2.98150E+02  -297868;   6.00000E+03   N 
  REF256 !
   PARAMETER G(BCC_A2,CR,FE:VA;0)  2.98150E+02  +20500-9.68*T;   6.00000E+03 
    N REF107 !
   PARAMETER TC(BCC_A2,CR,FE:VA;0)  2.98150E+02  1650;   6.00000E+03   N 
  REF107 !
   PARAMETER TC(BCC_A2,CR,FE:VA;1)  2.98150E+02  550;   6.00000E+03   N 
  REF107 !
   PARAMETER BMAGN(BCC_A2,CR,FE:VA;0)  2.98150E+02  -.85;   6.00000E+03   N 
  REF107 !
   PARAMETER G(BCC_A2,CR,FE,V:VA;0)  2.98150E+02  14881;   6.00000E+03   N 
  REF323 !
   PARAMETER G(BCC_A2,CR,FE,V:VA;1)  2.98150E+02  17968;   6.00000E+03   N 
  REF323 !
   PARAMETER G(BCC_A2,CR,FE,V:VA;2)  2.98150E+02  -7692;   6.00000E+03   N 
  REF323 !
   PARAMETER G(BCC_A2,CR,MO:VA;0)  2.98150E+02  +28890-7.962*T;   
  6.00000E+03   N REF123 !
   PARAMETER G(BCC_A2,CR,MO:VA;1)  2.98150E+02  +5974-2.428*T;   6.00000E+03 
    N REF123 !
   PARAMETER G(BCC_A2,CR,SI:VA;0)  2.98150E+02  -102850.19+9.85457*T;   
  6.00000E+03   N REF90 !
   PARAMETER G(BCC_A2,CR,SI:VA;1)  2.98150E+02  -49502.35+13.76967*T;   
  6.00000E+03   N REF90 !
   PARAMETER G(BCC_A2,CR,V:VA;0)  2.98150E+02  -9875-2.6964*T;   6.00000E+03 
    N REF323 !
   PARAMETER G(BCC_A2,CR,V:VA;1)  2.98150E+02  -1720-2.5237*T;   6.00000E+03 
    N REF323 !
   PARAMETER G(BCC_A2,FE,MO:VA;0)  2.98150E+02  +36818-9.141*T;   
  6.00000E+03   N REF10 !
   PARAMETER G(BCC_A2,FE,MO:VA;1)  2.98150E+02  -362-5.724*T;   6.00000E+03  
   N REF10 !
   PARAMETER TC(BCC_A2,FE,MO:VA;0)  2.98150E+02  335;   6.00000E+03   N 
  REF10 !
   PARAMETER TC(BCC_A2,FE,MO:VA;1)  2.98150E+02  526;   6.00000E+03   N 
  REF10 !
   PARAMETER G(BCC_A2,FE,SI:VA;0)  2.98150E+02  +4*L0BCC#-4*FESIW1#;   
  6.00000E+03   N REF98 !
   PARAMETER G(BCC_A2,FE,SI:VA;1)  2.98150E+02  +8*L1BCC#;   6.00000E+03   N 
  REF98 !
   PARAMETER G(BCC_A2,FE,SI:VA;2)  2.98150E+02  +16*L2BCC#;   6.00000E+03   
  N REF98 !
   PARAMETER TC(BCC_A2,FE,SI:VA;1)  2.98150E+02  +8*ETCFESI#;   6.00000E+03  
   N REF98 !
   PARAMETER G(BCC_A2,FE,V:VA;0)  2.98150E+02  -23674+.465*T;   6.00000E+03  
   N REF269 !
   PARAMETER G(BCC_A2,FE,V:VA;1)  2.98150E+02  8283;   6.00000E+03   N 
  REF269 !
   PARAMETER TC(BCC_A2,FE,V:VA;0)  2.98150E+02  -110;   6.00000E+03   N 
  REF111 !
   PARAMETER TC(BCC_A2,FE,V:VA;1)  2.98150E+02  3075;   6.00000E+03   N 
  REF111 !
   PARAMETER TC(BCC_A2,FE,V:VA;2)  2.98150E+02  808;   6.00000E+03   N 
  REF111 !
   PARAMETER TC(BCC_A2,FE,V:VA;3)  2.98150E+02  -2169;   6.00000E+03   N 
  REF111 !
   PARAMETER BMAGN(BCC_A2,FE,V:VA;0)  2.98150E+02  -2.26;   6.00000E+03   N 
  REF111 !


 TYPE_DEFINITION ' GES A_P_D CBCC_A12 MAGNETIC  -3.0    2.80000E-01 !
 PHASE CBCC_A12  %'  2 1   1 !
    CONSTITUENT CBCC_A12  :CR,FE,SI,V : C,VA% :  !

   PARAMETER G(CBCC_A12,CR:C;0) 298.15 UN_ASS; 300 N REF0 !
   PARAMETER G(CBCC_A12,FE:C;0)  2.98150E+02  +80000+GHSERFE#+GHSERCC#;   
  6.00000E+03   N REF267 !
   PARAMETER G(CBCC_A12,SI:C;0)  2.98150E+02  +1000000+566.0326*T
  -85.955678*T*LN(T)-.007814909*T**2+3.7239E-07*T**3+1688653*T**(-1);  
  3.00000E+03  N REF177 !
   PARAMETER G(CBCC_A12,V:C;0)  2.98150E+02  +10000+GHSERVV#+GHSERCC#;   
  6.00000E+03   N REF275 !
   PARAMETER G(CBCC_A12,CR:VA;0)  2.98150E+02  +11087+2.7196*T+GHSERCR#;   
  6.00000E+03   N REF283 !
   PARAMETER G(CBCC_A12,FE:VA;0)  2.98150E+02  +4745+GHSERFE#;   6.00000E+03 
    N REF283 !
   PARAMETER G(CBCC_A12,SI:VA;0)  2.98150E+02  +50208-20.377*T+GHSERSI#;  
  3.60000E+03  N REF283 !
   PARAMETER G(CBCC_A12,V:VA;0) 298.15 UN_ASS; 300 N REF0 !
   PARAMETER G(CBCC_A12,FE:C,VA;0)  2.98150E+02  -34671;   6.00000E+03   N 
  REF267 !
   PARAMETER G(CBCC_A12,FE,SI:VA;0)  2.98150E+02  -153141+46.48*T;   
  6.00000E+03   N REF42 !
   PARAMETER G(CBCC_A12,FE,SI:VA;1)  2.98150E+02  -92352;   6.00000E+03   N 
  REF42 !
   PARAMETER G(CBCC_A12,FE,SI:VA;2)  2.98150E+02  62240;   6.00000E+03   N 
  REF42 !
   PARAMETER G(CBCC_A12,FE,V:VA;0)  2.98150E+02  -10000;   6.00000E+03   N 
  REF275 !


 PHASE CEMENTITE  %  2 3   1 !
    CONSTITUENT CEMENTITE  :CR,FE%,MO,V : C :  !

   PARAMETER G(CEMENTITE,CR:C;0)  2.98150E+02  +3*GHSERCR#+GHSERCC#-48000
  -9.2888*T;   6.00000E+03   N REF322 !
   PARAMETER G(CEMENTITE,FE:C;0)  2.98150E+02  +GFECEM#;   6.00000E+03   N 
  REF190 !
   PARAMETER G(CEMENTITE,MO:C;0)  2.98150E+02  +3*GHSERMO#+GHSERCC#+77000
  -57.4*T;   6.00000E+03   N REF104 !
   PARAMETER G(CEMENTITE,V:C;0)  2.98150E+02  -156971+601.922*T
  -100.438*T*LN(T)+765557*T**(-1);   6.00000E+03   N REF275 !
   PARAMETER G(CEMENTITE,CR,FE:C;0)  2.98150E+02  +25278-17.5*T;   
  6.00000E+03   N REF322 !
   PARAMETER G(CEMENTITE,CR,MO:C;0)  2.98150E+02  40000;   6.00000E+03   N 
  REF316 !
   PARAMETER G(CEMENTITE,CR,V:C;0)  2.98150E+02  -29622-8.0892*T;   
  6.00000E+03   N REF324 !
   PARAMETER G(CEMENTITE,CR,V:C;1)  2.98150E+02  -5160-7.5711*T;   
  6.00000E+03   N REF324 !
   PARAMETER G(CEMENTITE,FE,V:C;0)  2.98150E+02  -45873-12.414*T;   
  6.00000E+03   N REF270 !


 PHASE CHI_A12  %  3 24   10   24 !
    CONSTITUENT CHI_A12  :CR,FE : CR,MO : CR,FE,MO :  !

   PARAMETER G(CHI_A12,CR:CR:CR;0)  2.98150E+02  +48*GCRFCC#+10*GHSERCR#
  +109000+123*T;   6.00000E+03   N REF213 !
   PARAMETER G(CHI_A12,FE:CR:CR;0)  2.98150E+02  +24*GFEFCC#+10*GHSERCR#
  +24*GCRFCC#+18300-100*T;   6.00000E+03   N REF115 !
   PARAMETER G(CHI_A12,CR:MO:CR;0)  2.98150E+02  +24*GCRFCC#+10*GHSERMO#
  +24*GCRFCC#-26000;   6.00000E+03   N REF213 !
   PARAMETER G(CHI_A12,FE:MO:CR;0)  2.98150E+02  +24*GFEFCC#+10*GHSERMO#
  +24*GCRFCC#+32555-385*T;   6.00000E+03   N REF213 !
   PARAMETER G(CHI_A12,CR:CR:FE;0)  2.98150E+02  +24*GCRFCC#+10*GHSERCR#
  +24*GFEFCC#+500000;   6.00000E+03   N REF213 !
   PARAMETER G(CHI_A12,FE:CR:FE;0)  2.98150E+02  +48*GFEFCC#+10*GHSERCR#
  +57300-100*T;   6.00000E+03   N REF115 !
   PARAMETER G(CHI_A12,CR:MO:FE;0)  2.98150E+02  +24*GCRFCC#+10*GHSERMO#
  +24*GFEFCC#+500000;   6.00000E+03   N REF213 !
   PARAMETER G(CHI_A12,FE:MO:FE;0)  2.98150E+02  +48*GFEFCC#+10*GHSERMO#
  +305210-270*T;   6.00000E+03   N REF115 !
   PARAMETER G(CHI_A12,CR:CR:MO;0)  2.98150E+02  +24*GCRFCC#+10*GHSERCR#
  +24*GMOFCC#+500000;   6.00000E+03   N REF213 !
   PARAMETER G(CHI_A12,FE:CR:MO;0)  2.98150E+02  +24*GFEFCC#+10*GHSERCR#
  +24*GMOFCC#+100000;   6.00000E+03   N REF115 !
   PARAMETER G(CHI_A12,CR:MO:MO;0)  2.98150E+02  +24*GCRFCC#+10*GHSERMO#
  +24*GMOFCC#+500000;   6.00000E+03   N REF213 !
   PARAMETER G(CHI_A12,FE:MO:MO;0)  2.98150E+02  +24*GFEFCC#+10*GHSERMO#
  +24*GMOFCC#+97300-100*T;   6.00000E+03   N REF115 !


 PHASE CR2VC2  %  3 2   1   2 !
    CONSTITUENT CR2VC2  :CR : V : C :  !

   PARAMETER G(CR2VC2,CR:V:C;0)  2.98150E+02  -105987-38.2069*T+2*GHSERCR#
  +GHSERVV#+2*GHSERCC#;   6.00000E+03   N REF324 !


 PHASE CR3SI  %  2 3   1 !
    CONSTITUENT CR3SI  :CR%,SI : CR,SI% :  !

   PARAMETER G(CR3SI,CR:CR;0)  2.98150E+02  +17008.82+4*T+4*GHSERCR#;   
  6.00000E+03   N REF90 !
   PARAMETER G(CR3SI,SI:CR;0)  2.98150E+02  +167008.8+4*T+GHSERCR#
  +3*GHSERSI#;   6.00000E+03   N REF90 !
   PARAMETER G(CR3SI,CR:SI;0)  2.98150E+02  -125456.6+4*T+3*GHSERCR#
  +GHSERSI#;   6.00000E+03   N REF90 !
   PARAMETER G(CR3SI,SI:SI;0)  2.98150E+02  +24543.3+4*T+4*GHSERSI#;   
  6.00000E+03   N REF90 !


 PHASE CR5SI3  %  2 5   3 !
    CONSTITUENT CR5SI3  :CR : SI :  !

   PARAMETER G(CR5SI3,CR:SI;0)  2.98150E+02  -318953.76+1067.49776*T
  -182.57818*T*LN(T)-.02391968*T**2-2.31728E-06*T**3;   6.00000E+03   N 
  REF90 !


 PHASE CRSI  %  2 1   1 !
    CONSTITUENT CRSI  :CR : SI :  !

   PARAMETER G(CRSI,CR:SI;0)  2.98150E+02  -79041.68+311.75228*T
  -51.62865*T*LN(T)-.00447355*T**2+391330*T**(-1);   6.00000E+03   N REF90 !


 PHASE CRSI2  %  2 1   2 !
    CONSTITUENT CRSI2  :CR%,SI : CR,SI% :  !

   PARAMETER G(CRSI2,CR:CR;0)  2.98150E+02  +10000+10*T+3*GHSERCR#;   
  6.00000E+03   N REF90 !
   PARAMETER G(CRSI2,SI:CR;0)  2.98150E+02  +150000-T+2*GHSERCR#+GHSERSI#;   
  6.00000E+03   N REF90 !
   PARAMETER G(CRSI2,CR:SI;0)  2.98150E+02  -96793.65+333.25242*T
  -57.85575*T*LN(T)-.01322769*T**2-4.3203E-07*T**3;   6.00000E+03   N REF90 !
   PARAMETER G(CRSI2,SI:SI;0)  2.98150E+02  +77711.85-15.05638*T+3*GHSERSI#; 
    6.00000E+03   N REF90 !
   PARAMETER G(CRSI2,CR:CR,SI;0)  2.98150E+02  -57532.96+11.37201*T;   
  6.00000E+03   N REF90 !
   PARAMETER G(CRSI2,SI:CR,SI;0)  2.98150E+02  -57532.96+11.37201*T;   
  6.00000E+03   N REF90 !

