
$ Database file written 2014- 5- 2
$ From database: USER                    
 ELEMENT /-   ELECTRON_GAS              0.0000E+00  0.0000E+00  0.0000E+00!
 ELEMENT VA   VACUUM                    0.0000E+00  0.0000E+00  0.0000E+00!
 ELEMENT AL   FCC_A1                    2.6982E+01  4.5773E+03  2.8322E+01!
 ELEMENT B    BETA_RHOMBO_B             1.0811E+01  1.2220E+03  5.9000E+00!
 ELEMENT C    GRAPHITE                  1.2011E+01  1.0540E+03  5.7400E+00!
 ELEMENT CE   FCC_A1                    1.4012E+02  7.2801E+03  6.9454E+00!
 ELEMENT CR   BCC_A2                    5.1996E+01  4.0500E+03  2.3560E+01!
 ELEMENT CU   FCC_A1                    6.3546E+01  5.0041E+03  3.3150E+01!
 ELEMENT FE   BCC_A2                    5.5847E+01  4.4890E+03  2.7280E+01!
 ELEMENT LI   BCC_A2                    6.9410E+00  4.6233E+03  2.9095E+01!
 ELEMENT MG   HCP_A3                    2.4305E+01  4.9980E+03  3.2671E+01!
 ELEMENT MN   CBCC_A12                  5.4938E+01  4.9960E+03  3.2008E+01!
 ELEMENT N    1/2_MOLE_N2(G)            1.4007E+01  4.3350E+03  9.5751E+01!
 ELEMENT ND   DHCP                      1.4424E+01  7.1337E+03  7.1086E+01!
 ELEMENT NI   FCC_A1                    5.8690E+01  4.7870E+03  2.9797E+01!
 ELEMENT SI   DIAMOND_A4                2.8085E+01  3.2175E+03  1.8820E+01!
 ELEMENT SN   BCT_A5                    1.1869E+02  6.3220E+03  5.1195E+01!
 ELEMENT TI   HCP_A3                    4.7880E+01  4.8240E+03  3.0720E+01!
 ELEMENT V    BCC_A2                    5.0942E+01  4.5070E+03  3.0890E+01!
 ELEMENT Y    HCP_A3                    8.8906E+01  5.9664E+03  4.4434E+01!
 ELEMENT ZN   HCP_A3                    6.5380E+01  5.6567E+03  4.1631E+01!
 ELEMENT ZR   HCP_A3                    9.1224E+01  5.5663E+03  3.9181E+01!
 
 SPECIES AL2                         AL2!
 SPECIES B1N1                        B1N1!
 SPECIES B2                          B2!
 SPECIES B4                          B4!
 SPECIES BC                          B1C1!
 SPECIES BN                          B1N1!
 SPECIES C+1                         C1/+1!
 SPECIES C-1                         C1/-1!
 SPECIES C2                          C2!
 SPECIES C2-1                        C2/-1!
 SPECIES C2B                         B1C2!
 SPECIES C2SI                        C2SI1!
 SPECIES C3                          C3!
 SPECIES C4                          C4!
 SPECIES C5                          C5!
 SPECIES CSI                         C1SI1!
 SPECIES CSI2                        C1SI2!
 SPECIES MG2SN                       MG2SN1!
 SPECIES N2                          N2!
 SPECIES N3                          N3!
 SPECIES SI+1                        SI1/+1!
 SPECIES SI2                         SI2!
 SPECIES SI3                         SI3!
 
 FUNCTION GHSERAL    2.98150E+02  -7976.15+137.093038*T-24.3671976*T*LN(T)
     -.001884662*T**2-8.77664E-07*T**3+74092*T**(-1);  7.00000E+02  Y
      -11276.24+223.048446*T-38.5844296*T*LN(T)+.018531982*T**2
     -5.764227E-06*T**3+74092*T**(-1);  9.33470E+02  Y
      -11278.378+188.684153*T-31.748192*T*LN(T)-1.230524E+28*T**(-9);  
     2.90000E+03  N !
 FUNCT GLIQAL  
        298.15   +11005.029-11.841867*T+7.934E-20*T**7+GHSERAL; 
        933.47 Y +10482.382-11.253974*T+1.231E+28*T**(-9)+GHSERAL; 
      6000.00 N REF0!
 FUNCTION GHSERCC    2.98150E+02  -17368.441+170.73*T-24.3*T*LN(T)
     -4.723E-04*T**2+2562600*T**(-1)-2.643E+08*T**(-2)+1.2E+10*T**(-3);   
     6.00000E+03   N !
 FUNCTION GHSERCR    2.98150E+02  -8856.94+157.48*T-26.908*T*LN(T)
     +.00189435*T**2-1.47721E-06*T**3+139250*T**(-1);  2.18000E+03  Y
      -34869.344+344.18*T-50*T*LN(T)-2.88526E+32*T**(-9);  6.00000E+03  N !
 FUNCTION GHSERFE    2.98150E+02  +1225.7+124.134*T-23.5143*T*LN(T)
     -.00439752*T**2-5.8927E-08*T**3+77359*T**(-1);  1.81100E+03  Y
      -25383.581+299.31255*T-46*T*LN(T)+2.29603E+31*T**(-9);  6.00000E+03  N 
     !
 FUNCTION GHSERMG    2.98150E+02  -8367.34+143.675547*T-26.1849782*T*LN(T)
     +4.858E-04*T**2-1.393669E-06*T**3+78950*T**(-1);  9.23000E+02  Y
      -14130.185+204.716215*T-34.3088*T*LN(T)+1.038192E+28*T**(-9);  
     3.00000E+03  N !
 FUNCTION GHSERMN    2.98150E+02  -8115.28+130.059*T-23.4582*T*LN(T)
     -.00734768*T**2+69827*T**(-1);  1.51900E+03  Y
      -28733.41+312.2648*T-48*T*LN(T)+1.656847E+30*T**(-9);  6.00000E+03  N !
 FUNCTION GHSERNN    2.98150E+02  -3750.675-9.45425*T-12.7819*T*LN(T)
     -.00176686*T**2+2.681E-09*T**3-32374*T**(-1);  9.50000E+02  Y
      -7358.85+17.2003*T-16.3699*T*LN(T)-6.5107E-04*T**2+3.0097E-08*T**3
     +563070*T**(-1);  3.35000E+03  Y
      -16392.8+50.26*T-20.4695*T*LN(T)+2.39754E-04*T**2-8.333E-09*T**3
     +4596375*T**(-1);  6.00000E+03  N !
 FUNCTION GHSERNI    2.98150E+02  -5179.159+117.854*T-22.096*T*LN(T)
     -.0048407*T**2;  1.72800E+03  N !
 FUNCTION GHSERSI    2.98150E+02  -8162.609+137.236859*T-22.8317533*T*LN(T)
     -.001912904*T**2-3.552E-09*T**3+176667*T**(-1);  1.68700E+03  Y
      -9457.642+167.281367*T-27.196*T*LN(T)-4.20369E+30*T**(-9);  
     3.60000E+03  N !
 FUNCTION GLIQSN     1.00000E+02  -855.425+108.677684*T-25.858*T*LN(T)
     +5.1185E-04*T**2-3.192767E-06*T**3+18440*T**(-1)+1.47031E-18*T**7;  
     2.50000E+02  Y
      +1247.957+51.355548*T-15.961*T*LN(T)-.0188702*T**2+3.121167E-06*T**3
     -61960*T**(-1)+1.47031E-18*T**7;  5.05080E+02  Y
      +9496.31-9.809114*T-8.2590486*T*LN(T)-.016814429*T**2
     +2.623131E-06*T**3-1081244*T**(-1);  8.00000E+02  Y
      -1285.372+125.182498*T-28.4512*T*LN(T);  3.00000E+03  N !
 FUNCTION GLIQTI     2.98150E+02  +12194.415-6.980938*T+GHSERTI#;  
     1.30000E+03  Y
      +368610.36-2620.99904*T+357.005867*T*LN(T)-.155262855*T**2
     +1.2254402E-05*T**3-65556856*T**(-1)+GHSERTI#;  1.94100E+03  Y
      +104639.72-340.070171*T+40.9282461*T*LN(T)-.008204849*T**2
     +3.04747E-07*T**3-36699805*T**(-1)+GHSERTI#;  6.00000E+03  N !
 FUNCTION GHSERV     2.98150E+02  -7930.43+133.346053*T-24.134*T*LN(T)
     -.003098*T**2+1.2175E-07*T**3+69460*T**(-1);  7.90000E+02  Y
      -7967.842+143.291093*T-25.9*T*LN(T)+6.25E-05*T**2-6.8E-07*T**3;  
     2.18300E+03  Y
      -41689.864+321.140783*T-47.43*T*LN(T)+6.44389E+31*T**(-9);  
     6.00000E+03  N !
 FUNCTION GHSERZR    1.30000E+02  -7827.595+125.64905*T-24.1618*T*LN(T)
     -.00437791*T**2+34971*T**(-1);  2.12800E+03  Y
      -26085.921+262.724183*T-42.144*T*LN(T)-1.342895E+31*T**(-9);  
     6.00000E+03  N !
 FUNCTION GHSERTI    2.98150E+02  -8059.921+133.615208*T-23.9933*T*LN(T)
     -.004777975*T**2+1.06716E-07*T**3+72636*T**(-1);  9.00000E+02  Y
      -7811.815+132.988068*T-23.9887*T*LN(T)-.0042033*T**2-9.0876E-08*T**3
     +42680*T**(-1);  1.15500E+03  Y
      +908.837+66.976538*T-14.9466*T*LN(T)-.0081465*T**2+2.02715E-07*T**3
     -1477660*T**(-1);  1.94100E+03  Y
      -124526.786+638.806871*T-87.2182461*T*LN(T)+.008204849*T**2
     -3.04747E-07*T**3+36699805*T**(-1);  4.00000E+03  N !
 FUNCTION GHSERCE    2.98150E+02  -7160.519+84.23022*T-22.3664*T*LN(T)
     -.0067103*T**2-3.20773E-07*T**3-18117*T**(-1);  1.00000E+03  Y
      -79678.506+659.4604*T-101.32248*T*LN(T)+.026046487*T**2
     -1.9302976E-06*T**3+11531707*T**(-1);  2.00000E+03  Y
      -14198.639+190.370192*T-37.6978*T*LN(T);  4.00000E+03  N !
 FUNCTION GHSERND    2.98150E+02  -8402.93+111.10239*T-27.0858*T*LN(T)
     +5.56125E-04*T**2-2.6923E-06*T**3+34887*T**(-1);  9.00000E+02  Y
      -6984.083+83.662617*T-22.7536*T*LN(T)-.00420402*T**2-1.802E-06*T**3;  
     1.12800E+03  Y
      -225610.846+1673.04075*T-238.182873*T*LN(T)+.078615997*T**2
     -6.048207E-06*T**3+38810350*T**(-1);  1.80000E+03  N !
 FUNCTION GHSERLI    2.00000E+02  -10583.817+217.637482*T-38.940488*T*LN(T)
     +.035466931*T**2-1.9869816E-05*T**3+159994*T**(-1);  4.53600E+02  Y
      -559579.123+10547.8799*T-1702.88865*T*LN(T)+2.25832944*T**2
     -5.71066077E-04*T**3+33885874*T**(-1);  5.00000E+02  Y
      -9062.994+179.278285*T-31.2283718*T*LN(T)+.002633221*T**2
     -4.38058E-07*T**3-102387*T**(-1);  3.00000E+03  N !
 FUNCTION GHSERY     2.98150E+02  -7347.055+117.532124*T-23.8685*T*LN(T)
     -.003845475*T**2+1.1125E-08*T**3-16486*T**(-1);  1.50000E+03  Y
      -15802.62+229.831717*T-40.2851*T*LN(T)+.0068095*T**2-1.14182E-06*T**3; 
      1.79900E+03  Y
      -72946.216+393.885821*T-58.2078433*T*LN(T)+.002436461*T**2
     -7.2627E-08*T**3+20866567*T**(-1);  3.70000E+03  N !
 FUNCTION GHSERBB    2.98150E+02  -7735.284+107.111864*T-15.6641*T*LN(T)
     -.006864515*T**2+6.18878E-07*T**3+370843*T**(-1);  1.10000E+03  Y
      -16649.474+184.801744*T-26.6047*T*LN(T)-7.9809E-04*T**2-2.556E-08*T**3
     +1748270*T**(-1);  2.34800E+03  Y
      -36667.582+231.336244*T-31.5957527*T*LN(T)-.00159488*T**2
     +1.34719E-07*T**3+11205883*T**(-1);  3.00000E+03  Y
      -21530.653+222.396264*T-31.4*T*LN(T);  6.00000E+03  N !
 FUNCTION GHSERCU    2.98150E+02  -7770.458+130.485235*T-24.112392*T*LN(T)
     -.00265684*T**2+1.29223E-07*T**3+52478*T**(-1);  1.35777E+03  Y
      -13542.026+183.803828*T-31.38*T*LN(T)+3.64167E+29*T**(-9);  
     3.20000E+03  N !
 FUNCTION GBCCCU     2.98150E+02  +4017-1.255*T+GHSERCU#;   6.00000E+03   N !
 FUNCTION GBCCAL     2.98150E+02  +10083-4.813*T+GHSERAL#;   6.00000E+03   N 
     !
 FUNCTION GBCCMG     2.98150E+02  +3100-2.1*T+GHSERMG#;   6.00000E+03   N !
 FUNCTION GFCCV      2.98150E+02  +7500+1.7*T+GHSERV#;   6.00000E+03   N !
 FUNCTION GFCCTI     2.98150E+02  +6000-.1*T+GHSERTI#;   6.00000E+03   N !
 FUNCTION GHCPAL     2.98150E+02  +5481-1.8*T+GHSERAL#;   6.00000E+03   N !
 FUNCTION GHCPV      2.98150E+02  +4000+2.4*T+GHSERV#;   6.00000E+03   N !
 FUNCTION GHSERTIC   2.98150E+02  -207709+307.438*T-48.0195*T*LN(T)
     -.00272*T**2+819000*T**(-1)-2.03E+09*T**(-3);   6.00000E+03   N !
 FUNCTION GHSERTIN   2.98150E+02  -357905+330.498*T-52.4587*T*LN(T)
     -9.28E-04*T**2+871000*T**(-1)-2.41E+09*T**(-3);   6.00000E+03   N !
 FUNCTION GHSERSN    1.00000E+02  -7958.517+122.765451*T-25.858*T*LN(T)
     +5.1185E-04*T**2-3.192767E-06*T**3+18440*T**(-1);  2.50000E+02  Y
      -5855.135+65.443315*T-15.961*T*LN(T)-.0188702*T**2+3.121167E-06*T**3
     -61960*T**(-1);  5.05080E+02  Y
      +2524.724+4.005269*T-8.2590486*T*LN(T)-.016814429*T**2
     +2.623131E-06*T**3-1081244*T**(-1)-1.2307E+25*T**(-9);  8.00000E+02  Y
      -8256.959+138.99688*T-28.4512*T*LN(T)-1.2307E+25*T**(-9);  3.00000E+03 
      N !
 FUNCTION GHSERZN    2.98150E+02  -7285.787+118.470069*T-23.701314*T*LN(T)
     -.001712034*T**2-1.264963E-06*T**3;  6.92680E+02  Y
      -11070.559+172.34566*T-31.38*T*LN(T)+4.70514E+26*T**(-9);  1.70000E+03 
      N !
 FUNCTION ALFEW1     2.98150E+02  +860*R#;   6.00000E+03   N !
 FUNCTION LALFEB0    2.98150E+02  -30740+7.9972*T+ALFEW1#;   6.00000E+03   N 
     !
 FUNCTION CUZNL0     2.98150E+02  -51595.87+13.06392*T;   6.00000E+03   N !
 FUNCTION CUZNP1     2.98150E+02  -3085;   6.00000E+03   N !
 FUNCTION GBCCZN     2.98150E+02  +2886.96-2.5104*T+GHSERZN#;   6.00000E+03  
      N !
 FUNCTION FESIW1     2.98150E+02  +1260*R#;   6.00000E+03   N !
 FUNCTION GBCCSI     2.98150E+02  +47000-22.5*T+GHSERSI#;   6.00000E+03   N !
 FUNCTION FESIL0     2.98150E+02  -27809+11.62*T;   6.00000E+03   N !
 FUNCTION GFCCZN     2.98150E+02  +2969.82-1.56968*T+GHSERZN#;   6.00000E+03 
       N !
 FUNCTION CUZNK4     2.98150E+02  -11552.71-1.67824*T;   6.00000E+03   N !
 FUNCTION CUZNK5     2.98150E+02  +15732.3-10.26575*T;   6.00000E+03   N !
 FUNCTION CUZNK6     2.98150E+02  +37289.2-13.05259*T;   6.00000E+03   N !
 FUNCTION GFCCMN     2.98150E+02  -3439.3+131.884*T-24.5177*T*LN(T)
     -.006*T**2+69600*T**(-1);  1.51900E+03  Y
      -26070.1+309.6664*T-48*T*LN(T)+3.86196E+30*T**(-9);  6.00000E+03  N !
 FUNCTION GBCCMN     2.98150E+02  -3235.3+127.85*T-23.7*T*LN(T)
     -.00744271*T**2+60000*T**(-1);  1.51900E+03  Y
      -23188.83+307.7043*T-48*T*LN(T)+1.265152E+30*T**(-9);  6.00000E+03  N !
 FUNCTION GLAVTI     2.98150E+02  +5000+GHSERTI#;   6.00000E+03   N !
 FUNCTION GLAVCR     2.98150E+02  +5000+GHSERCR#;   6.00000E+03   N !
 FUNCTION LALFEB1    2.98150E+02  368.15;   6.00000E+03   N !
 FUNCTION CUZNL1     2.98150E+02  +7562.13-6.45432*T;   6.00000E+03   N !
 FUNCTION CUZNL2     2.98150E+02  +30743.74-29.91503*T;   6.00000E+03   N !
 FUNCTION CUZNP2     2.98150E+02  -CUZNP1#;   6.00000E+03   N !
 FUNCTION FESIL1     2.98150E+02  -11544;   6.00000E+03   N !
 FUNCTION FESIL2     2.98150E+02  3890;   6.00000E+03   N !
 FUNCTION ETCFESI    2.98150E+02  63;   6.00000E+03   N !
 FUNCTION UN_ASS 298.15 0; 300 N !
 
 TYPE_DEFINITION % SEQ *!
 DEFINE_SYSTEM_DEFAULT ELEMENT 2 !
 DEFAULT_COMMAND DEF_SYS_ELEMENT VA /- !


 PHASE LIQUID:L %  1  1.0  !
    CONSTITUENT LIQUID:L :AL,B,C,CE,CR,CU,FE,LI,MG,MN,N,ND,NI,SI,SN,TI,V,Y,
    ZN,ZR :  !

$ changed to the expression in COST2 180826 /BoS
   PARAMETER G(LIQUID,AL;0)  2.98150E+02  GLIQAL; 6000 N REF1 !
$   PARAMETER G(LIQUID,AL;0)  2.98150E+02  +11005.029-11.841867*T
$  +7.934E-20*T**7+GHSERAL#;  9.33600E+02  Y
$   +10482.382-11.253974*T+1.231E+28*T**(-9)+GHSERAL#;  6.00000E+03  N REF1 !
   PARAMETER G(LIQUID,B;0)  2.98150E+02  +40723.275+86.843839*T
  -15.6641*T*LN(T)-.006864515*T**2+6.18878E-07*T**3+370843*T**(-1);  
  5.00000E+02  Y
   +41119.703+82.101722*T-14.9827763*T*LN(T)-.007095669*T**2
  +5.07347E-07*T**3+335484*T**(-1);  2.34800E+03  Y
   +28842.012+200.94731*T-31.4*T*LN(T);  6.00000E+03  N REF1 !
   PARAMETER G(LIQUID,C;0)  2.98150E+02  +117369-24.63*T+GHSERCC#;   
  6.00000E+03   N REF1 !
   PARAMETER G(LIQUID,CE;0)  2.98150E+02  +4117.865-11.423898*T
  -7.5383948*T*LN(T)-.02936407*T**2+4.827734E-06*T**3-198834*T**(-1);  
  1.00000E+03  Y
   -6730.605+183.023193*T-37.6978*T*LN(T);  4.00000E+03  N REF1 !
   PARAMETER G(LIQUID,CR;0)  2.98150E+02  +24339.955-11.420225*T
  +2.37615E-21*T**7+GHSERCR#;  2.18000E+03  Y
   +18409.36-8.563683*T+2.88526E+32*T**(-9)+GHSERCR#;  6.00000E+03  N REF1 !
   PARAMETER G(LIQUID,CU;0)  2.98150E+02  +5194.277+120.973331*T
  -24.112392*T*LN(T)-.00265684*T**2+1.29223E-07*T**3+52478*T**(-1)
  -5.8489E-21*T**7;  1.35777E+03  Y
   -46.545+173.881484*T-31.38*T*LN(T);  3.20000E+03  N REF1 !
   PARAMETER G(LIQUID,FE;0)  2.98150E+02  +12040.17-6.55843*T
  -3.67516E-21*T**7+GHSERFE#;  1.81100E+03  Y
   +14544.751-8.01055*T+GHSERFE#-2.29603E+31*T**(-9);  6.00000E+03  N REF1 !
   PARAMETER G(LIQUID,LI;0)  2.00000E+02  -7883.612+211.841861*T
  -38.940488*T*LN(T)+.035466931*T**2-1.9869816E-05*T**3+159994*T**(-1);  
  2.50000E+02  Y
   +12015.027-362.187078*T+61.6104424*T*LN(T)-.182426463*T**2
  +6.3955671E-05*T**3-559968*T**(-1);  4.53600E+02  Y
   -6057.31+172.652183*T-31.2283718*T*LN(T)+.002633221*T**2-4.38058E-07*T**3
  -102387*T**(-1);  3.00000E+03  N REF1 !
   PARAMETER G(LIQUID,MG;0)  2.98150E+02  +8202.243-8.83693*T+GHSERMG#
  -8.0176E-20*T**7;  9.23000E+02  Y
   +8690.316-9.392158*T+GHSERMG#-1.038192E+28*T**(-9);  6.00000E+03  N REF1 !
   PARAMETER G(LIQUID,MN;0)  2.98150E+02  +17859.91-12.6208*T
  -4.41929E-21*T**7+GHSERMN#;  1.51900E+03  Y
   +18739.51-13.2288*T-1.656847E+30*T**(-9)+GHSERMN#;  6.00000E+03  N REF1 !
   PARAMETER G(LIQUID,N;0)  2.98150E+02  +29950+59.02*T+GHSERNN#;   
  6.00000E+03   N REF1 !
   PARAMETER G(LIQUID,ND;0)  2.98150E+02  +5350.01-86.593963*T
  +5.357301*T*LN(T)-.046955463*T**2+6.860782E-06*T**3-374380*T**(-1);  
  1.12800E+03  Y
   -16335.232+268.625903*T-48.7854*T*LN(T);  1.80000E+03  N REF1 !
   PARAMETER G(LIQUID,NI;0)  2.98150E+02  +16414.686-9.397*T
  -3.82318E-21*T**7+GHSERNI#;  1.72800E+03  Y
   +18290.88-10.537*T-1.12754E+31*T**(-9)+GHSERNI#;  6.00000E+03  N REF1 !
   PARAMETER G(LIQUID,SI;0)  2.98150E+02  +50696.4-30.0994*T
  +2.09307E-21*T**7+GHSERSI#;  1.68700E+03  Y
   +49828.2-29.5591*T+4.20369E+30*T**(-9)+GHSERSI#;  6.00000E+03  N REF1 !
   PARAMETER G(LIQUID,SN;0)  2.98150E+02  +GLIQSN#;   6.00000E+03   N REF1 !
   PARAMETER G(LIQUID,TI;0)  2.98150E+02  +GLIQTI#;   6.00000E+03   N REF1 !
   PARAMETER G(LIQUID,V;0)  2.98150E+02  +20764.117-9.455552*T
  -5.19136E-22*T**7+GHSERV#;  7.90000E+02  Y
   +20764.117-9.455552*T-5.19136E-22*T**7+GHSERV#;  2.18300E+03  Y
   +22072.354-10.0848*T-6.44389E+31*T**(-9)+GHSERV#;  6.00000E+03  N REF1 !
   PARAMETER G(LIQUID,Y;0)  2.98150E+02  +3934.121+59.921688*T
  -14.8146562*T*LN(T)-.015623487*T**2+1.442946E-06*T**3-140695*T**(-1);  
  1.79900E+03  Y
   -13337.609+258.004539*T-43.0952*T*LN(T);  3.70000E+03  N REF1 !
   PARAMETER G(LIQUID,ZN;0)  2.98150E+02  -128.574+108.177079*T
  -23.701314*T*LN(T)-.001712034*T**2-1.264963E-06*T**3-3.58958E-19*T**7;  
  6.92680E+02  Y
   -3620.391+161.608594*T-31.38*T*LN(T);  1.70000E+03  N REF1 !
   PARAMETER G(LIQUID,ZR;0)  1.30000E+02  +18147.703-9.080762*T
  +1.6275E-22*T**7+GHSERZR#;  2.12800E+03  Y
   +17804.649-8.91153*T+1.343E+31*T**(-9)+GHSERZR#;  6.00000E+03  N REF1 !
   PARAMETER G(LIQUID,AL,B;0)  2.98150E+02  -12671.16+1.81016*T;   
  6.00000E+03   N REF44 !
   PARAMETER G(LIQUID,AL,B;1)  2.98150E+02  31988.28;   6.00000E+03   N 
  REF44 !
   PARAMETER G(LIQUID,AL,B;2)  2.98150E+02  -15873.74;   6.00000E+03   N 
  REF44 !
   PARAMETER G(LIQUID,AL,C;0)  2.98150E+02  +13872.76-21.59067*T;   
  6.00000E+03   N REF46 !
   PARAMETER G(LIQUID,AL,CE;0)  2.98150E+02  -167593.1+84.87628*T;   
  6.00000E+03   N REF103 !
   PARAMETER G(LIQUID,AL,CE;1)  2.98150E+02  -36060+5.89346*T;   6.00000E+03 
    N REF103 !
   PARAMETER G(LIQUID,AL,CR;0)  2.98150E+02  -29000;   6.00000E+03   N REF8 !
   PARAMETER G(LIQUID,AL,CR;1)  2.98150E+02  -11000;   6.00000E+03   N REF8 !
   PARAMETER G(LIQUID,AL,CU;0)  2.98150E+02  -66622+8.1*T;   6.00000E+03   N 
  REF72 !
   PARAMETER G(LIQUID,AL,CU;1)  2.98150E+02  +46800-90.8*T+10*T*LN(T);   
  6.00000E+03   N REF72 !
   PARAMETER G(LIQUID,AL,CU;2)  2.98150E+02  -2812;   6.00000E+03   N REF72 !
   PARAMETER G(LIQUID,AL,CU,LI;0)  2.98150E+02  -100000;   6.00000E+03   N 
  REF119 !
   PARAMETER G(LIQUID,AL,FE;0)  2.98150E+02  -91976.5+22.1314*T;   
  6.00000E+03   N REF76 !
   PARAMETER G(LIQUID,AL,FE;1)  2.98150E+02  -5672.58+4.8728*T;   
  6.00000E+03   N REF76 !
   PARAMETER G(LIQUID,AL,FE;2)  2.98150E+02  121.9;   6.00000E+03   N REF76 !
   PARAMETER G(LIQUID,AL,FE,MN;0)  2.98150E+02  100414;   6.00000E+03   N 
  REF109 !
   PARAMETER G(LIQUID,AL,LI;0)  2.98150E+02  -41500+20.96*T;   6.00000E+03   
  N REF105 !
   PARAMETER G(LIQUID,AL,LI;1)  2.98150E+02  +10000-5.8*T;   6.00000E+03   N 
  REF105 !
   PARAMETER G(LIQUID,AL,LI;2)  2.98150E+02  +15902-9.368*T;   6.00000E+03   
  N REF105 !
   PARAMETER G(LIQUID,AL,LI;3)  2.98150E+02  -250;   6.00000E+03   N REF105 !
   PARAMETER G(LIQUID,AL,LI,MG;0)  2.98150E+02  -20000;   6.00000E+03   N 
  REF105 !
   PARAMETER G(LIQUID,AL,LI,MG;1)  2.98150E+02  -15000;   6.00000E+03   N 
  REF105 !
   PARAMETER G(LIQUID,AL,LI,MG;2)  2.98150E+02  -20000;   6.00000E+03   N 
  REF105 !
   PARAMETER G(LIQUID,AL,MG;0)  2.98150E+02  -12000+8.566*T;   6.00000E+03   
  N REF11 !
   PARAMETER G(LIQUID,AL,MG;1)  2.98150E+02  +1894-3*T;   6.00000E+03   N 
  REF11 !
   PARAMETER G(LIQUID,AL,MG;2)  2.98150E+02  2000;   6.00000E+03   N REF11 !
   PARAMETER G(LIQUID,AL,MG,SI;0)  2.98150E+02  +26860.37-3.35754*T;   
  6.00000E+03   N REF113 !
   PARAMETER G(LIQUID,AL,MG,SI;1)  2.98150E+02  -21007.19+2.6259*T;   
  6.00000E+03   N REF113 !
   PARAMETER G(LIQUID,AL,MG,SI;2)  2.98150E+02  -56273.39+7.03418*T;   
  6.00000E+03   N REF113 !
   PARAMETER G(LIQUID,AL,MN;0)  2.98150E+02  -66174+27.0988*T;   6.00000E+03 
    N REF23 !
   PARAMETER G(LIQUID,AL,MN;1)  2.98150E+02  -7509+5.4836*T;   6.00000E+03   
  N REF23 !
   PARAMETER G(LIQUID,AL,MN;2)  2.98150E+02  -2639;   6.00000E+03   N REF23 !
   PARAMETER G(LIQUID,AL,MN,SI;0)  2.98150E+02  -47000;   6.00000E+03   N 
  REF115 !
   PARAMETER G(LIQUID,AL,N;0)  2.98150E+02  -336826.61+103.22478*T;   
  6.00000E+03   N REF48 !
   PARAMETER G(LIQUID,AL,ND;0)  2.98150E+02  -152967.6+34.13746*T;   
  6.00000E+03   N REF80 !
   PARAMETER G(LIQUID,AL,ND;1)  2.98150E+02  -29325-3.34477*T;   6.00000E+03 
    N REF80 !
   PARAMETER G(LIQUID,AL,SI;0)  2.98150E+02  -11655.93-.92934*T;   
  6.00000E+03   N REF50 !
   PARAMETER G(LIQUID,AL,SI;1)  2.98150E+02  -2873.45+.2945*T;   6.00000E+03 
    N REF50 !
   PARAMETER G(LIQUID,AL,SI;2)  2.98150E+02  2520;   6.00000E+03   N REF50 !
   PARAMETER G(LIQUID,AL,SN;0)  2.98150E+02  +16329.85-4.98306*T;   
  6.00000E+03   N REF15 !
   PARAMETER G(LIQUID,AL,SN;1)  2.98150E+02  +4111.97-1.15145*T;   
  6.00000E+03   N REF15 !
   PARAMETER G(LIQUID,AL,SN;2)  2.98150E+02  +1765.43-.5739*T;   6.00000E+03 
    N REF15 !
   PARAMETER G(LIQUID,AL,SN,ZN;0)  2.98150E+02  -2777.03+.59427*T;   
  6.00000E+03   N REF107 !
   PARAMETER G(LIQUID,AL,SN,ZN;1)  2.98150E+02  +15225.63-3.25821*T;   
  6.00000E+03   N REF107 !
   PARAMETER G(LIQUID,AL,SN,ZN;2)  2.98150E+02  -16198.13+3.46632*T;   
  6.00000E+03   N REF107 !
   PARAMETER G(LIQUID,AL,TI;0)  2.98150E+02  -108250+38*T;   6.00000E+03   N 
  REF13 !
   PARAMETER G(LIQUID,AL,TI;1)  2.98150E+02  -6000+5*T;   6.00000E+03   N 
  REF13 !
   PARAMETER G(LIQUID,AL,TI;2)  2.98150E+02  15000;   6.00000E+03   N REF13 !
   PARAMETER G(LIQUID,AL,TI,V;0)  2.98150E+02  1E-05;   6.00000E+03   N 
  REF127 !
   PARAMETER G(LIQUID,AL,V;0)  2.98150E+02  -50725+9*T;   6.00000E+03   N 
  REF13 !
   PARAMETER G(LIQUID,AL,V;1)  2.98150E+02  -15000+8*T;   6.00000E+03   N 
  REF13 !
   PARAMETER G(LIQUID,AL,Y;0)  2.98150E+02  -202611.28+4.63942*T;  
  2.90000E+03  N REF52 !
   PARAMETER G(LIQUID,AL,Y;1)  2.98150E+02  -54350.11+.28402*T;  2.90000E+03 
   N REF52 !
   PARAMETER G(LIQUID,AL,Y;2)  2.98150E+02  +83347.01-34.76401*T;  
  2.90000E+03  N REF52 !
   PARAMETER G(LIQUID,AL,Y;3)  2.98150E+02  +15488.69-.7988*T;  2.90000E+03  
  N REF52 !
   PARAMETER G(LIQUID,AL,Y;4)  2.98150E+02  -51205.9+30.2161*T;  2.90000E+03 
   N REF52 !
   PARAMETER G(LIQUID,AL,ZN;0)  2.98150E+02  +10465.55-3.39259*T;   
  6.00000E+03   N REF78 !
   PARAMETER G(LIQUID,AL,ZR;0)  2.98150E+02  -125000+35*T;   6.00000E+03   N 
  REF74 !
   PARAMETER G(LIQUID,AL,ZR;1)  2.98150E+02  -10000+5.57*T;   6.00000E+03   
  N REF74 !
   PARAMETER G(LIQUID,AL,ZR;2)  2.98150E+02  15750;   6.00000E+03   N REF74 !
   PARAMETER G(LIQUID,B,C;0)  2.98150E+02  -67045.16+4.46969*T;   
  6.00000E+03   N REF54 !
   PARAMETER G(LIQUID,B,C;1)  2.98150E+02  -36682.57+2.44551*T;   
  6.00000E+03   N REF54 !
   PARAMETER G(LIQUID,B,N;0)  2.98150E+02  +30000-4*T;   6.00000E+03   N 
  REF56 !
   PARAMETER G(LIQUID,B,SI;0)  2.98150E+02  +17631.92-1.76321*T;   
  6.00000E+03   N REF58 !
   PARAMETER G(LIQUID,B,SI;1)  2.98150E+02  -3526.99+.3527*T;   6.00000E+03  
   N REF58 !
   PARAMETER G(LIQUID,B,TI;0)  2.98150E+02  -265414.4+15.543418*T;   
  6.00000E+03   N REF89 !
   PARAMETER G(LIQUID,B,TI;1)  2.98150E+02  -134303.03+17.709482*T;   
  6.00000E+03   N REF89 !
   PARAMETER G(LIQUID,B,TI;2)  2.98150E+02  61691.479;   6.00000E+03   N 
  REF89 !
   PARAMETER G(LIQUID,B,TI;3)  2.98150E+02  52656.13;   6.00000E+03   N 
  REF89 !
   PARAMETER G(LIQUID,C,SI;0)  2.98150E+02  +25644.97-6.39115*T;   
  6.00000E+03   N REF60 !
   PARAMETER G(LIQUID,C,TI;0)  2.98150E+02  -214678-14.314*T;   6.00000E+03  
   N REF111 !
   PARAMETER G(LIQUID,CE,MG;0)  2.98150E+02  -39381.19+16.34052*T;   
  6.00000E+03   N REF103 !
   PARAMETER G(LIQUID,CE,MG;1)  2.98150E+02  +25338.56-11.86885*T;   
  6.00000E+03   N REF103 !
   PARAMETER G(LIQUID,CE,MG;2)  2.98150E+02  -15106.9;   6.00000E+03   N 
  REF103 !
   PARAMETER G(LIQUID,CR,CU;0)  2.98150E+02  +62797.75-18.95186*T;   
  6.00000E+03   N REF96 !
   PARAMETER G(LIQUID,CR,CU;1)  2.98150E+02  1183.91;   6.00000E+03   N 
  REF96 !
   PARAMETER G(LIQUID,CR,MG;0)  2.98150E+02  94500;   6.00000E+03   N REF83 !
   PARAMETER G(LIQUID,CR,MG;1)  2.98150E+02  12500;   6.00000E+03   N REF83 !
   PARAMETER G(LIQUID,CR,MN;0)  2.98150E+02  -15009+13.6587*T;   6.00000E+03 
    N REF2 !
   PARAMETER G(LIQUID,CR,MN;1)  2.98150E+02  +504+.9479*T;   6.00000E+03   N 
  REF2 !
   PARAMETER G(LIQUID,CR,SI;0)  2.98150E+02  -119216.9+16.11445*T;   
  6.00000E+03   N REF91 !
   PARAMETER G(LIQUID,CR,SI;1)  2.98150E+02  -47614.7+12.17363*T;   
  6.00000E+03   N REF91 !
   PARAMETER G(LIQUID,CR,TI;0)  2.98150E+02  5250;   6.00000E+03   N REF72 !
   PARAMETER G(LIQUID,CR,TI;1)  2.98150E+02  1500;   6.00000E+03   N REF72 !
   PARAMETER G(LIQUID,CR,ZN;0)  2.98150E+02  19000;   6.00000E+03   N REF83 !
   PARAMETER G(LIQUID,CR,ZN;1)  2.98150E+02  -1000;   6.00000E+03   N REF83 !
   PARAMETER G(LIQUID,CR,ZR;0)  2.98150E+02  -12971.34+1.20015*T;   
  6.00000E+03   N REF98 !
   PARAMETER G(LIQUID,CR,ZR;1)  2.98150E+02  +8025.96-.74259*T;   
  6.00000E+03   N REF98 !
   PARAMETER G(LIQUID,CR,ZR;2)  2.98150E+02  -9984.87+.92383*T;   
  6.00000E+03   N REF98 !
   PARAMETER G(LIQUID,CU,FE;0)  2.98150E+02  +36087.987-2.3296885*T;   
  6.00000E+03   N REF85 !
   PARAMETER G(LIQUID,CU,FE;1)  2.98150E+02  +324.52964-.032700618*T;   
  6.00000E+03   N REF85 !
   PARAMETER G(LIQUID,CU,FE;2)  2.98150E+02  +10355.386-3.6029763*T;   
  6.00000E+03   N REF85 !
   PARAMETER G(LIQUID,CU,LI;0)  2.98150E+02  +66000-44.723*T;   6.00000E+03  
   N REF74 !
   PARAMETER G(LIQUID,CU,MG;0)  2.98150E+02  -36984+4.75612*T;   6.00000E+03 
    N REF20 !
   PARAMETER G(LIQUID,CU,MG;1)  2.98150E+02  -8191.29;   6.00000E+03   N 
  REF20 !
   PARAMETER G(LIQUID,CU,MG,NI;0)  2.98150E+02  +163785-122.28*T;   
  6.00000E+03   N REF94 !
   PARAMETER G(LIQUID,CU,NI;0)  2.98150E+02  +12048.61+1.29893*T;   
  6.00000E+03   N REF31 !
   PARAMETER G(LIQUID,CU,NI;1)  2.98150E+02  -1861.61+.94201*T;   
  6.00000E+03   N REF31 !
   PARAMETER G(LIQUID,CU,SI;0)  2.98150E+02  -39688.86+14.27467*T;   
  6.00000E+03   N REF94 !
   PARAMETER G(LIQUID,CU,SI;1)  2.98150E+02  -49937.13+29.7896*T;   
  6.00000E+03   N REF94 !
   PARAMETER G(LIQUID,CU,SI;2)  2.98150E+02  -31810.16+18.00804*T;   
  6.00000E+03   N REF94 !
   PARAMETER G(LIQUID,CU,ZN;0)  2.98150E+02  -40695.54+12.65269*T;   
  6.00000E+03   N REF70 !
   PARAMETER G(LIQUID,CU,ZN;1)  2.98150E+02  +4402.72-6.55425*T;   
  6.00000E+03   N REF70 !
   PARAMETER G(LIQUID,CU,ZN;2)  2.98150E+02  +7818.1-3.25416*T;   
  6.00000E+03   N REF70 !
   PARAMETER G(LIQUID,CU,ZR;0)  2.98150E+02  -61685.53+11.29235*T;   
  6.00000E+03   N REF125 !
   PARAMETER G(LIQUID,CU,ZR;1)  2.98150E+02  -8830.66+5.04565*T;   
  6.00000E+03   N REF125 !
   PARAMETER G(LIQUID,FE,MG;0)  2.98150E+02  +61343+1.5*T;   6.00000E+03   N 
  REF29 !
   PARAMETER G(LIQUID,FE,MG;1)  2.98150E+02  -2700;   6.00000E+03   N REF29 !
   PARAMETER G(LIQUID,FE,MN;0)  2.98150E+02  -3950+.489*T;   6.00000E+03   N 
  REF6 !
   PARAMETER G(LIQUID,FE,MN;1)  2.98150E+02  1145;   6.00000E+03   N REF6 !
   PARAMETER G(LIQUID,FE,SI;0)  2.98150E+02  -164434.6+41.9773*T;   
  6.00000E+03   N REF26 !
   PARAMETER G(LIQUID,FE,SI;1)  2.98150E+02  -21.523*T;   6.00000E+03   N 
  REF26 !
   PARAMETER G(LIQUID,FE,SI;2)  2.98150E+02  -18821.542+22.07*T;   
  6.00000E+03   N REF26 !
   PARAMETER G(LIQUID,FE,SI;3)  2.98150E+02  9695.8;   6.00000E+03   N REF26 !
   PARAMETER G(LIQUID,LI,MG;0)  2.98150E+02  -14935+10.371*T;   6.00000E+03  
   N REF105 !
   PARAMETER G(LIQUID,LI,MG;1)  2.98150E+02  -1789+1.143*T;   6.00000E+03   
  N REF105 !
   PARAMETER G(LIQUID,LI,MG;2)  2.98150E+02  +6533-6.6915*T;   6.00000E+03   
  N REF105 !
   PARAMETER G(LIQUID,LI,ZR;0)  2.98150E+02  100000;   6.00000E+03   N REF74 !
   PARAMETER G(LIQUID,MG,MN;0)  2.98150E+02  +19125+12.5*T;   6.00000E+03   
  N REF29 !
   PARAMETER G(LIQUID,MG,NI;0)  2.98150E+02  -42304.49+7.45704*T;   
  6.00000E+03   N REF94 !
   PARAMETER G(LIQUID,MG,NI;1)  2.98150E+02  -15611.66+9.11885*T;   
  6.00000E+03   N REF94 !
   PARAMETER G(LIQUID,MG,SI;0)  2.98150E+02  -82462.11+32.43049*T;   
  6.00000E+03   N REF62 !
   PARAMETER G(LIQUID,MG,SI;1)  2.98150E+02  +16617.63-17.7922*T;   
  6.00000E+03   N REF62 !
   PARAMETER G(LIQUID,MG,SI;2)  2.98150E+02  +2331.67-.29146*T;   
  6.00000E+03   N REF62 !
   PARAMETER G(LIQUID,MG,SI;3)  2.98150E+02  +17833.02-2.22914*T;   
  6.00000E+03   N REF62 !
   PARAMETER G(LIQUID,MG,SI;4)  2.98150E+02  -11203.22+1.40041*T;   
  6.00000E+03   N REF62 !
   PARAMETER G(LIQUID,MG,Y;0)  2.98150E+02  -25802.51+4.30042*T;   
  6.00000E+03   N REF64 !
   PARAMETER G(LIQUID,MG,Y;1)  2.98150E+02  -19229.76+3.20497*T;   
  6.00000E+03   N REF64 !
   PARAMETER G(LIQUID,MG,ZN;0)  2.98150E+02  -81439.68+518.25145*T
  -64.714411*T*LN(T);   6.00000E+03   N REF33 !
   PARAMETER G(LIQUID,MG,ZN;1)  2.98150E+02  +2627.54+2.93061*T;   
  6.00000E+03   N REF33 !
   PARAMETER G(LIQUID,MG,ZN;2)  2.98150E+02  -1673.28;   6.00000E+03   N 
  REF33 !
   PARAMETER G(LIQUID,MG,ZR;0)  2.98150E+02  +14003.84+29.34205*T;   
  6.00000E+03   N REF68 !
   PARAMETER G(LIQUID,MN,SI;0)  2.98150E+02  -139817+29.86137*T;   
  6.00000E+03   N REF29 !
   PARAMETER G(LIQUID,MN,SI;1)  2.98150E+02  -34917.2+3.20488*T;   
  6.00000E+03   N REF29 !
   PARAMETER G(LIQUID,MN,SI;2)  2.98150E+02  +46782.4-18.18969*T;   
  6.00000E+03   N REF29 !
   PARAMETER G(LIQUID,MN,SI;3)  2.98150E+02  16168.2;   6.00000E+03   N 
  REF29 !
   PARAMETER G(LIQUID,MN,TI;0)  2.98150E+02  -34000+21.5*T;   6.00000E+03   
  N REF72 !
   PARAMETER G(LIQUID,MN,TI;1)  2.98150E+02  1400;   6.00000E+03   N REF72 !
   PARAMETER G(LIQUID,N,TI;0)  2.98150E+02  -376736;   6.00000E+03   N 
  REF111 !
   PARAMETER G(LIQUID,N,TI;1)  2.98150E+02  -102480;   6.00000E+03   N 
  REF111 !
   PARAMETER G(LIQUID,SI,SN;0)  2.98150E+02  25364.6;  3.00000E+03  N REF94 !
   PARAMETER G(LIQUID,SI,SN;1)  2.98150E+02  3148.8;  3.00000E+03  N REF94 !
   PARAMETER G(LIQUID,SI,SN;2)  2.98150E+02  4460.9;  3.00000E+03  N REF94 !
   PARAMETER G(LIQUID,SI,TI;0)  2.98150E+02  -255852.17+21.87411*T;   
  6.00000E+03   N REF123 !
   PARAMETER G(LIQUID,SI,TI;1)  2.98150E+02  +25025.35-2.00203*T;   
  6.00000E+03   N REF123 !
   PARAMETER G(LIQUID,SI,TI;2)  2.98150E+02  +83940.65-6.71526*T;   
  6.00000E+03   N REF123 !
   PARAMETER G(LIQUID,SI,V;0)  2.98150E+02  -180900+40*T;   6.00000E+03   N 
  REF117 !
   PARAMETER G(LIQUID,SI,V;1)  2.98150E+02  37000;   6.00000E+03   N REF117 !