
$ Database file written 2014-10- 1
$ From database: SSOL2                   
 ELEMENT /-   ELECTRON_GAS              0.0000E+00  0.0000E+00  0.0000E+00!
 ELEMENT VA   VACUUM                    0.0000E+00  0.0000E+00  0.0000E+00!
 ELEMENT CR   BCC_A2                    5.1996E+01  4.0500E+03  2.3560E+01!
 ELEMENT FE   BCC_A2                    5.5847E+01  4.4890E+03  2.7280E+01!
 ELEMENT MN   CBCC_A12                  5.4938E+01  4.9960E+03  3.2008E+01!
 ELEMENT MO   BCC_A2                    9.5940E+01  4.5890E+03  2.8560E+01!
 ELEMENT N    1/2_MOLE_N2(G)            1.4007E+01  4.3350E+03  9.5751E+01!
 ELEMENT NI   FCC_A1                    5.8690E+01  4.7870E+03  2.9796E+01!
 
 SPECIES N2                          N2!
 
 FUNCTION GHSERCR    2.98150E+02  -8856.94+157.48*T-26.908*T*LN(T)
     +.00189435*T**2-1.47721E-06*T**3+139250*T**(-1);  2.18000E+03  Y
      -34869.344+344.18*T-50*T*LN(T)-2.88526E+32*T**(-9);  6.00000E+03  N !
 FUNCTION GPCRLIQ    2.98150E+02  +YCRLIQ#*EXP(ZCRLIQ#);   6.00000E+03   N !
 FUNCTION GFELIQ     2.98150E+02  +12040.17-6.55843*T-3.6751551E-21*T**7
     +GHSERFE#;  1.81100E+03  Y
      -10839.7+291.302*T-46*T*LN(T);  6.00000E+03  N !
 FUNCTION GPFELIQ    2.98150E+02  +YFELIQ#*EXP(ZFELIQ#);   6.00000E+03   N !
 FUNCTION GHSERMN    2.98150E+02  -8115.28+130.059*T-23.4582*T*LN(T)
     -.00734768*T**2+69827*T**(-1);  1.51900E+03  Y
      -28733.41+312.2648*T-48*T*LN(T)+1.656847E+30*T**(-9);  2.00000E+03  N !
 FUNCTION GHSERMO    2.98150E+02  -7746.302+131.9197*T-23.56414*T*LN(T)
     -.003443396*T**2+5.66283E-07*T**3+65812*T**(-1)-1.30927E-10*T**4;  
     2.89600E+03  Y
      -30556.41+283.559746*T-42.63829*T*LN(T)-4.849315E+33*T**(-9);  
     5.00000E+03  N !
 FUNCTION GPMOLIQ    2.98150E+02  +YMOLIQ#*EXP(ZMOLIQ#);   6.00000E+03   N !
 FUNCTION GHSERNN    2.98150E+02  -3750.675-9.45425*T-12.7819*T*LN(T)
     -.00176686*T**2+2.681E-09*T**3-32374*T**(-1);  9.50000E+02  Y
      -7358.85+17.2003*T-16.3699*T*LN(T)-6.5107E-04*T**2+3.0097E-08*T**3
     +563070*T**(-1);  3.35000E+03  Y
      -16392.8+50.26*T-20.4695*T*LN(T)+2.39754E-04*T**2-8.333E-09*T**3
     +4596375*T**(-1);  6.00000E+03  N !
 FUNCTION GHCPNI     2.98150E+02  +6610.72+GHSERNI#;   6.00000E+03   N !
 FUNCTION GHSERNI    2.98150E+02  -5179.159+117.854*T-22.096*T*LN(T)
     -.0048407*T**2;  1.72800E+03  Y
      -27840.655+279.135*T-43.1*T*LN(T)+1.12754E+31*T**(-9);  3.00000E+03  N 
     !
 FUNCTION GHSERFE    2.98150E+02  +1225.7+124.134*T-23.5143*T*LN(T)
     -.00439752*T**2-5.8927E-08*T**3+77359*T**(-1);  1.81100E+03  Y
      -25383.581+299.31255*T-46*T*LN(T)+2.29603E+31*T**(-9);  6.00000E+03  N 
     !
 FUNCTION GPCRBCC    2.98150E+02  +YCRBCC#*EXP(ZCRBCC#);   6.00000E+03   N !
 FUNCTION GPFEBCC    2.98150E+02  +YFEBCC#*EXP(ZFEBCC#);   6.00000E+03   N !
 FUNCTION GMNBCC     2.98150E+02  -3235.3+127.85*T-23.7*T*LN(T)
     -.00744271*T**2+60000*T**(-1);  1.51900E+03  Y
      -23188.83+307.7043*T-48*T*LN(T)+1.265152E+30*T**(-9);  2.00000E+03  N !
 FUNCTION GPMOBCC    2.98150E+02  +YMOBCC#*EXP(ZMOBCC#);   6.00000E+03   N !
 FUNCTION GNIBCC     2.98150E+02  +8715.084-3.556*T+GHSERNI#;   6.00000E+03  
      N !
 FUNCTION GCRFCC     2.98150E+02  +7284+.163*T+GHSERCR#;   6.00000E+03   N !
 FUNCTION GFEFCC     2.98150E+02  -1462.4+8.282*T-1.15*T*LN(T)+6.4E-04*T**2
     +GHSERFE#;  1.81100E+03  Y
      -27098.266+300.25256*T-46*T*LN(T)+2.78854E+31*T**(-9);  6.00000E+03  N 
     !
 FUNCTION GMOFCC     2.98150E+02  +15200+.63*T+GHSERMO#;   6.00000E+03   N !
 FUNCTION GPFEFCC    2.98150E+02  +YFEFCC#*EXP(ZFEFCC#);   6.00000E+03   N !
 FUNCTION GMNFCC     2.98150E+02  -3439.3+131.884*T-24.5177*T*LN(T)
     -.006*T**2+69600*T**(-1);  1.51900E+03  Y
      -26070.1+309.6664*T-48*T*LN(T)+3.86196E+30*T**(-9);  2.00000E+03  N !
 FUNCTION GPFEHCP    2.98150E+02  +YFEHCP#*EXP(ZFEHCP#);   6.00000E+03   N !
 FUNCTION GPMU1      2.98150E+02  +8.72E-05*P;   6.00000E+03   N !
 FUNCTION GPMU2      2.98150E+02  +1.04E-04*P;   6.00000E+03   N !
 FUNCTION GPR1       2.98150E+02  +3.81E-04*P;   6.00000E+03   N !
 FUNCTION GPR2       2.98150E+02  +4.33E-04*P;   6.00000E+03   N !
 FUNCTION GPSIG1     2.98150E+02  +1.09E-04*P;   6.00000E+03   N !
 FUNCTION GPSIG2     2.98150E+02  +1.117E-04*P;   6.00000E+03   N !
 FUNCTION YCRLIQ     2.98150E+02  +VCRLIQ#*EXP(-ECRLIQ#);   6.00000E+03   N !
 FUNCTION ZCRLIQ     2.98150E+02  +1*LN(XCRLIQ#);   6.00000E+03   N !
 FUNCTION YFELIQ     2.98150E+02  +VFELIQ#*EXP(-EFELIQ#);   6.00000E+03   N !
 FUNCTION ZFELIQ     2.98150E+02  +1*LN(XFELIQ#);   6.00000E+03   N !
 FUNCTION YMOLIQ     2.98150E+02  +VMOLIQ#*EXP(-EMOLIQ#);   6.00000E+03   N !
 FUNCTION ZMOLIQ     2.98150E+02  +1*LN(XMOLIQ#);   6.00000E+03   N !
 FUNCTION YCRBCC     2.98150E+02  +VCRBCC#*EXP(-ECRBCC#);   6.00000E+03   N !
 FUNCTION ZCRBCC     2.98150E+02  +1*LN(XCRBCC#);   6.00000E+03   N !
 FUNCTION YFEBCC     2.98150E+02  +VFEBCC#*EXP(-EFEBCC#);   6.00000E+03   N !
 FUNCTION ZFEBCC     2.98150E+02  +1*LN(XFEBCC#);   6.00000E+03   N !
 FUNCTION YMOBCC     2.98150E+02  +VMOBCC#*EXP(-EMOBCC#);   6.00000E+03   N !
 FUNCTION ZMOBCC     2.98150E+02  +1*LN(XMOBCC#);   6.00000E+03   N !
 FUNCTION YFEFCC     2.98150E+02  +VFEFCC#*EXP(-EFEFCC#);   6.00000E+03   N !
 FUNCTION ZFEFCC     2.98150E+02  +1*LN(XFEFCC#);   6.00000E+03   N !
 FUNCTION YFEHCP     2.98150E+02  +VFEHCP#*EXP(-EFEHCP#);   6.00000E+03   N !
 FUNCTION ZFEHCP     2.98150E+02  +1*LN(XFEHCP#);   6.00000E+03   N !
 FUNCTION VCRLIQ     2.98150E+02  +7.653E-06*EXP(ACRLIQ#);   6.00000E+03   N 
     !
 FUNCTION ECRLIQ     2.98150E+02  +1*LN(CCRLIQ#);   6.00000E+03   N !
 FUNCTION XCRLIQ     2.98150E+02  +1*EXP(.8*DCRLIQ#)-1;   6.00000E+03   N !
 FUNCTION VFELIQ     2.98150E+02  +6.46677E-06*EXP(AFELIQ#);   6.00000E+03   
     N !
 FUNCTION EFELIQ     2.98150E+02  +1*LN(CFELIQ#);   6.00000E+03   N !
 FUNCTION XFELIQ     2.98150E+02  +1*EXP(.8484467*DFELIQ#)-1;   6.00000E+03  
      N !
 FUNCTION VMOLIQ     2.98150E+02  +9.75079E-06*EXP(AMOLIQ#);   6.00000E+03   
     N !
 FUNCTION EMOLIQ     2.98150E+02  +1*LN(CMOLIQ#);   6.00000E+03   N !
 FUNCTION XMOLIQ     2.98150E+02  +1*EXP(.6923076*DMOBCC#)-1;   6.00000E+03  
      N !
 FUNCTION VCRBCC     2.98150E+02  +7.188E-06*EXP(ACRBCC#);   6.00000E+03   N 
     !
 FUNCTION ECRBCC     2.98150E+02  +1*LN(CCRBCC#);   6.00000E+03   N !
 FUNCTION XCRBCC     2.98150E+02  +1*EXP(.8*DCRBCC#)-1;   6.00000E+03   N !
 FUNCTION VFEBCC     2.98150E+02  +7.042095E-06*EXP(AFEBCC#);   6.00000E+03  
      N !
 FUNCTION EFEBCC     2.98150E+02  +1*LN(CFEBCC#);   6.00000E+03   N !
 FUNCTION XFEBCC     2.98150E+02  +1*EXP(.7874195*DFEBCC#)-1;   6.00000E+03  
      N !
 FUNCTION VMOBCC     2.98150E+02  +9.34372E-06*EXP(AMOBCC#);   6.00000E+03   
     N !
 FUNCTION EMOBCC     2.98150E+02  +1*LN(CMOBCC#);   6.00000E+03   N !
 FUNCTION XMOBCC     2.98150E+02  +1*EXP(.6923076*DMOBCC#)-1;   6.00000E+03  
      N !
 FUNCTION VFEFCC     2.98150E+02  +6.688726E-06*EXP(AFEFCC#);   6.00000E+03  
      N !
 FUNCTION EFEFCC     2.98150E+02  +1*LN(CFEFCC#);   6.00000E+03   N !
 FUNCTION XFEFCC     2.98150E+02  +1*EXP(.8064454*DFEFCC#)-1;   6.00000E+03  
      N !
 FUNCTION VFEHCP     2.98150E+02  +6.59121E-06*EXP(AFEHCP#);   6.00000E+03   
     N !
 FUNCTION EFEHCP     2.98150E+02  +1*LN(CFEHCP#);   6.00000E+03   N !
 FUNCTION XFEHCP     2.98150E+02  +1*EXP(.8064454*DFEHCP#)-1;   6.00000E+03  
      N !
 FUNCTION ACRLIQ     2.98150E+02  +1.7E-05*T+9.2E-09*T**2;   6.00000E+03   N 
     !
 FUNCTION CCRLIQ     2.98150E+02  3.72E-11;   6.00000E+03   N !
 FUNCTION DCRLIQ     2.98150E+02  +1*LN(BCRLIQ#);   6.00000E+03   N !
 FUNCTION AFELIQ     2.98150E+02  +1.135E-04*T;   6.00000E+03   N !
 FUNCTION CFELIQ     2.98150E+02  +4.22534787E-12+2.71569924E-14*T;   
     6.00000E+03   N !
 FUNCTION DFELIQ     2.98150E+02  +1*LN(BFELIQ#);   6.00000E+03   N !
 FUNCTION AMOLIQ     2.98150E+02  +1.4378E-05*T+2.33031E-10*T**2
     +1.14687E-12*T**3;   6.00000E+03   N !
 FUNCTION CMOLIQ     2.98150E+02  +7.88107E-12+3.375E-16*T+8.775E-20*T**2;   
     6.00000E+03   N !
 FUNCTION DMOBCC     2.98150E+02  +1*LN(BMOBCC#);   6.00000E+03   N !
 FUNCTION ACRBCC     2.98150E+02  +1.7E-05*T+9.2E-09*T**2;   6.00000E+03   N 
     !
 FUNCTION CCRBCC     2.98150E+02  2.08E-11;   6.00000E+03   N !
 FUNCTION DCRBCC     2.98150E+02  +1*LN(BCRBCC#);   6.00000E+03   N !
 FUNCTION AFEBCC     2.98150E+02  +2.3987E-05*T+1.2845E-08*T**2;   
     6.00000E+03   N !
 FUNCTION CFEBCC     2.98150E+02  +2.20949565E-11+2.41329523E-16*T;   
     6.00000E+03   N !
 FUNCTION DFEBCC     2.98150E+02  +1*LN(BFEBCC#);   6.00000E+03   N !
 FUNCTION AMOBCC     2.98150E+02  +1.4378E-05*T+2.33031E-10*T**2
     +1.14687E-12*T**3;   6.00000E+03   N !
 FUNCTION CMOBCC     2.98150E+02  +7.88107E-12+3.375E-16*T+8.775E-20*T**2;   
     6.00000E+03   N !
 FUNCTION AFEFCC     2.98150E+02  +7.3097E-05*T;   6.00000E+03   N !
 FUNCTION CFEFCC     2.98150E+02  +2.62285341E-11+2.71455808E-16*T;   
     6.00000E+03   N !
 FUNCTION DFEFCC     2.98150E+02  +1*LN(BFEFCC#);   6.00000E+03   N !
 FUNCTION AFEHCP     2.98150E+02  +7.3646E-05*T;   6.00000E+03   N !
 FUNCTION CFEHCP     2.98150E+02  +2.62285341E-11+2.71455808E-16*T;   
     6.00000E+03   N !
 FUNCTION DFEHCP     2.98150E+02  +1*LN(BFEHCP#);   6.00000E+03   N !
 FUNCTION BCRLIQ     2.98150E+02  +1+4.65E-11*P;   6.00000E+03   N !
 FUNCTION BFELIQ     2.98150E+02  +1+4.98009787E-12*P+3.20078924E-14*T*P;   
     6.00000E+03   N !
 FUNCTION BMOBCC     2.98150E+02  +1+1.13837E-11*P+4.875E-16*T*P
     +1.2675E-19*T**2*P;   6.00000E+03   N !
 FUNCTION BCRBCC     2.98150E+02  +1+2.6E-11*P;   6.00000E+03   N !
 FUNCTION BFEBCC     2.98150E+02  +1+2.80599565E-11*P+3.06481523E-16*T*P;   
     6.00000E+03   N !
 FUNCTION BFEFCC     2.98150E+02  +1+3.25236341E-11*P+3.36607808E-16*T*P;   
     6.00000E+03   N !
 FUNCTION BFEHCP     2.98150E+02  +1+3.25236341E-11*P+3.36607808E-16*T*P;   
     6.00000E+03   N !
 FUNCTION UN_ASS 298.15 0; 300 N !
 
 TYPE_DEFINITION % SEQ *!
 DEFINE_SYSTEM_DEFAULT ELEMENT 2 !
 DEFAULT_COMMAND DEF_SYS_ELEMENT VA /- !


 PHASE LIQUID:L %  1  1.0  !
    CONSTITUENT LIQUID:L :CR,FE,MN,MO,N,NI :  !

   PARAMETER G(LIQUID,CR;0)  2.98150E+02  +24339.955-11.420225*T
  +2.37615E-21*T**7+GHSERCR#+GPCRLIQ#;  2.18000E+03  Y
   +18409.36-8.563683*T+2.88526E+32*T**(-9)+GHSERCR#+GPCRLIQ#;  6.00000E+03  
  N REF283 !
   PARAMETER G(LIQUID,FE;0)  2.98150E+02  +GFELIQ#+GPFELIQ#;   6.00000E+03   
  N REF283 !
   PARAMETER G(LIQUID,MN;0)  2.98150E+02  +17859.91-12.6208*T
  -4.41929E-21*T**7+GHSERMN#;  1.51900E+03  Y
   +18739.51-13.2288*T-1.656847E+30*T**(-9)+GHSERMN#;  2.00000E+03  N REF283 !
   PARAMETER G(LIQUID,MO;0)  2.98150E+02  +41831.347-14.694912*T
  +4.24519E-22*T**7+GHSERMO#+GPMOLIQ#;  2.89600E+03  Y
   +34095.373-11.890046*T+4.849315E+33*T**(-9)+GHSERMO#+GPMOLIQ#;  
  5.00000E+03  N REF283 !
   PARAMETER G(LIQUID,N;0)  2.98150E+02  +29950+59.02*T+GHSERNN#;   
  6.00000E+03   N REF283 !
   PARAMETER G(LIQUID,NI;0)  2.98150E+02  +11235.527+108.457*T
  -22.096*T*LN(T)-.0048407*T**2-3.82318E-21*T**7;  1.72800E+03  Y
   -9549.775+268.598*T-43.1*T*LN(T);  3.00000E+03  N REF283 !
   PARAMETER G(LIQUID,CR,FE;0)  2.98150E+02  -14550+6.65*T;   6.00000E+03   
  N REF107 !
   PARAMETER G(LIQUID,CR,FE,N;0)  2.98150E+02  -340750+187.4*T;   
  6.00000E+03   N REF126 !
   PARAMETER G(LIQUID,CR,FE,N,NI;0)  2.98150E+02  -261500;   6.00000E+03   N 
  REF129 !
   PARAMETER G(LIQUID,CR,FE,NI;0)  2.98150E+02  14510;   6.00000E+03   N 
  REF322 !
   PARAMETER G(LIQUID,CR,FE,NI;1)  2.98150E+02  11977;   6.00000E+03   N 
  REF322 !
   PARAMETER G(LIQUID,CR,FE,NI;2)  2.98150E+02  5147;   6.00000E+03   N 
  REF322 !
   PARAMETER G(LIQUID,CR,MN;0)  2.98150E+02  -15009+13.6587*T;   6.00000E+03 
    N REF326 !
   PARAMETER G(LIQUID,CR,MN;1)  2.98150E+02  +504+.9479*T;   6.00000E+03   N 
  REF326 !
   PARAMETER G(LIQUID,CR,MO;0)  2.98150E+02  +15810-6.714*T;   6.00000E+03   
  N REF123 !
   PARAMETER G(LIQUID,CR,MO;1)  2.98150E+02  -6220;   6.00000E+03   N REF123 !
   PARAMETER G(LIQUID,CR,N;0)  2.98150E+02  -161800-16.11*T;   6.00000E+03   
  N REF128 !
   PARAMETER G(LIQUID,CR,N;1)  2.98150E+02  65508;   6.00000E+03   N REF128 !
   PARAMETER G(LIQUID,CR,N,NI;0)  2.98150E+02  -89400;   6.00000E+03   N 
  REF129 !
   PARAMETER G(LIQUID,CR,NI;0)  2.98150E+02  +318-7.3318*T;   6.00000E+03   
  N REF322 !
   PARAMETER G(LIQUID,CR,NI;1)  2.98150E+02  +16941-6.3696*T;   6.00000E+03  
   N REF322 !
   PARAMETER G(LIQUID,FE,MN;0)  2.98150E+02  -3950+.489*T;   6.00000E+03   N 
  REF261 !
   PARAMETER G(LIQUID,FE,MN;1)  2.98150E+02  1145;   6.00000E+03   N REF261 !
   PARAMETER G(LIQUID,FE,MO;0)  2.98150E+02  -6973-.37*T;   6.00000E+03   N 
  REF10 !
   PARAMETER G(LIQUID,FE,MO;1)  2.98150E+02  -9424+4.502*T;   6.00000E+03   
  N REF10 !
   PARAMETER G(LIQUID,FE,MO,NI;0)  2.98150E+02  50000;   6.00000E+03   N 
  REF132 !
   PARAMETER G(LIQUID,FE,N;0)  2.98150E+02  -19930-12.01*T;   6.00000E+03   
  N REF128 !
   PARAMETER G(LIQUID,FE,NI;0)  2.98150E+02  -18378.86+6.03912*T;   
  6.00000E+03   N REF158 !
   PARAMETER G(LIQUID,FE,NI;1)  2.98150E+02  +9228.1-3.54642*T;   
  6.00000E+03   N REF158 !
   PARAMETER G(LIQUID,MN,N;0)  2.98150E+02  -142308+6.0759*T;  2.50000E+03  
  N REF317 !
   PARAMETER G(LIQUID,MN,N;1)  2.98150E+02  32906;  2.50000E+03  N REF317 !
   PARAMETER G(LIQUID,MN,NI;0)  2.98150E+02  -69233.16+10.54315*T;   
  6.00000E+03   N REF182 !
   PARAMETER G(LIQUID,MN,NI;1)  2.98150E+02  7258.05;   6.00000E+03   N 
  REF182 !
   PARAMETER G(LIQUID,MO,N;0)  2.98150E+02  -198280+37.49*T;   6.00000E+03   
  N REF128 !
   PARAMETER G(LIQUID,MO,NI;0)  2.98150E+02  -46540+19.53*T;   6.00000E+03   
  N REF125 !
   PARAMETER G(LIQUID,MO,NI;1)  2.98150E+02  2915;   6.00000E+03   N REF125 !
   PARAMETER G(LIQUID,N,NI;0)  2.98150E+02  14981;   6.00000E+03   N REF129 !


 PHASE AL3NI2  %  2 .6   .4 !
    CONSTITUENT AL3NI2  :NI : NI% :  !

   PARAMETER G(AL3NI2,NI:NI;0)  2.98150E+02  +GHCPNI#;   6.00000E+03   N 
  REF95 !


 PHASE ALNI_B2  %  2 .5   .5 !
    CONSTITUENT ALNI_B2  :NI%,VA : NI :  !

   PARAMETER G(ALNI_B2,NI:NI;0)  2.98150E+02  +3109+4.721*T-.0043572*T**2
  +1.06896E-06*T**3+GHSERNI#;   6.00000E+03   N REF95 !
   PARAMETER G(ALNI_B2,VA:NI;0)  2.98150E+02  +108736-5.062*T+.5*GHSERNI#;   
  6.00000E+03   N REF95 !


 TYPE_DEFINITION & GES A_P_D BCC_A2 MAGNETIC  -1.0    4.00000E-01 !
 PHASE BCC_A2  %&  2 1   3 !
    CONSTITUENT BCC_A2  :CR%,FE%,MN,MO%,NI : N,VA% :  !

   PARAMETER G(BCC_A2,CR:N;0)  2.98150E+02  +GHSERCR#+3*GHSERNN#+311870
  +29.12*T;   6.00000E+03   N REF128 !
   PARAMETER TC(BCC_A2,CR:N;0)  2.98150E+02  -311.5;   6.00000E+03   N 
  REF128 !
   PARAMETER BMAGN(BCC_A2,CR:N;0)  2.98150E+02  -.008;   6.00000E+03   N 
  REF128 !
   PARAMETER G(BCC_A2,FE:N;0)  2.98150E+02  +93562+165.07*T+GHSERFE#
  +3*GHSERNN#;   6.00000E+03   N REF128 !
   PARAMETER TC(BCC_A2,FE:N;0)  2.98150E+02  1043;   6.00000E+03   N REF128 !
   PARAMETER BMAGN(BCC_A2,FE:N;0)  2.98150E+02  2.22;   6.00000E+03   N 
  REF128 !
   PARAMETER G(BCC_A2,MN:N;0)  2.98150E+02  -55600+606.648*T-100.41*T*LN(T)
  +844897*T**(-1);  2.50000E+03  N REF317 !
   PARAMETER G(BCC_A2,MO:N;0)  2.98150E+02  +GHSERMO#+3*GHSERNN#+299700
  +79.73*T;   6.00000E+03   N REF128 !
   PARAMETER G(BCC_A2,NI:N;0)  2.98150E+02  +200000+200*T+GHSERNI#
  +3*GHSERNN#;   6.00000E+03   N REF123 !
   PARAMETER TC(BCC_A2,NI:N;0)  2.98150E+02  575;   6.00000E+03   N REF123 !
   PARAMETER BMAGN(BCC_A2,NI:N;0)  2.98150E+02  .85;   6.00000E+03   N 
  REF123 !
   PARAMETER G(BCC_A2,CR:VA;0)  2.98150E+02  +GHSERCR#+GPCRBCC#;   
  6.00000E+03   N REF283 !
   PARAMETER TC(BCC_A2,CR:VA;0)  2.98150E+02  -311.5;   6.00000E+03   N 
  REF281 !
   PARAMETER BMAGN(BCC_A2,CR:VA;0)  2.98150E+02  -.01;   6.00000E+03   N 
  REF281 !
   PARAMETER G(BCC_A2,FE:VA;0)  2.98150E+02  +GHSERFE#+GPFEBCC#;   
  6.00000E+03   N REF283 !
   PARAMETER TC(BCC_A2,FE:VA;0)  2.98150E+02  1043;   6.00000E+03   N REF281 !
   PARAMETER BMAGN(BCC_A2,FE:VA;0)  2.98150E+02  2.22;   6.00000E+03   N 
  REF281 !
   PARAMETER G(BCC_A2,MN:VA;0)  2.98150E+02  +GMNBCC#;   6.00000E+03   N 
  REF283 !
   PARAMETER TC(BCC_A2,MN:VA;0)  2.98150E+02  -580;  2.00000E+03  N REF281 !
   PARAMETER BMAGN(BCC_A2,MN:VA;0)  2.98150E+02  -.27;  2.00000E+03  N 
  REF281 !
   PARAMETER G(BCC_A2,MO:VA;0)  2.98150E+02  +GHSERMO#+GPMOBCC#;  
  5.00000E+03  N REF283 !
   PARAMETER G(BCC_A2,NI:VA;0)  2.98150E+02  +GNIBCC#;  3.00000E+03  N 
  REF283 !
   PARAMETER TC(BCC_A2,NI:VA;0)  2.98150E+02  575;   6.00000E+03   N REF281 !
   PARAMETER BMAGN(BCC_A2,NI:VA;0)  2.98150E+02  .85;   6.00000E+03   N 
  REF281 !
   PARAMETER G(BCC_A2,CR,FE:N;0)  2.98150E+02  -799379+293*T;   6.00000E+03  
   N REF126 !
   PARAMETER TC(BCC_A2,CR,FE:N;0)  2.98150E+02  1650;   6.00000E+03   N 
  REF126 !
   PARAMETER TC(BCC_A2,CR,FE:N;1)  2.98150E+02  550;   6.00000E+03   N 
  REF126 !
   PARAMETER BMAGN(BCC_A2,CR,FE:N;0)  2.98150E+02  -.85;   6.00000E+03   N 
  REF126 !
   PARAMETER BMAGN(BCC_A2,CR,NI:N;0)  2.98150E+02  4;   6.00000E+03   N 
  REF129 !
   PARAMETER TC(BCC_A2,CR,NI:N;0)  2.98150E+02  2373;   6.00000E+03   N 
  REF128 !
   PARAMETER TC(BCC_A2,CR,NI:N;1)  2.98150E+02  617;   6.00000E+03   N 
  REF128 !
   PARAMETER G(BCC_A2,CR:N,VA;0)  2.98150E+02  -200000;   6.00000E+03   N 
  REF128 !
   PARAMETER G(BCC_A2,FE,MO:N;0)  2.98150E+02  -151200;   6.00000E+03   N 
  REF134 !
   PARAMETER G(BCC_A2,MN:N,VA;0)  2.98150E+02  -185000;  2.50000E+03  N 
  REF317 !
   PARAMETER G(BCC_A2,CR,FE:VA;0)  2.98150E+02  +20500-9.68*T;   6.00000E+03 
    N REF107 !
   PARAMETER TC(BCC_A2,CR,FE:VA;0)  2.98150E+02  1650;   6.00000E+03   N 
  REF107 !
   PARAMETER TC(BCC_A2,CR,FE:VA;1)  2.98150E+02  550;   6.00000E+03   N 
  REF107 !
   PARAMETER BMAGN(BCC_A2,CR,FE:VA;0)  2.98150E+02  -.85;   6.00000E+03   N 
  REF107 !
   PARAMETER G(BCC_A2,CR,FE,MN:VA;0)  2.98150E+02  -8374;   6.00000E+03   N 
  REF326 !
   PARAMETER G(BCC_A2,CR,FE,NI:VA;0)  2.98150E+02  -2673+2.0415*T;   
  6.00000E+03   N REF322 !
   PARAMETER G(BCC_A2,CR,MN:VA;0)  2.98150E+02  -20328+18.7339*T;   
  6.00000E+03   N REF326 !
   PARAMETER G(BCC_A2,CR,MN:VA;1)  2.98150E+02  -9162+4.4183*T;   
  6.00000E+03   N REF326 !
   PARAMETER TC(BCC_A2,CR,MN:VA;0)  2.98150E+02  -1325;   6.00000E+03   N 
  REF326 !
   PARAMETER TC(BCC_A2,CR,MN:VA;2)  2.98150E+02  -1133;   6.00000E+03   N 
  REF326 !
   PARAMETER TC(BCC_A2,CR,MN:VA;4)  2.98150E+02  -10294;   6.00000E+03   N 
  REF326 !
   PARAMETER TC(BCC_A2,CR,MN:VA;6)  2.98150E+02  26706;   6.00000E+03   N 
  REF326 !
   PARAMETER TC(BCC_A2,CR,MN:VA;8)  2.98150E+02  -28117;   6.00000E+03   N 
  REF326 !
   PARAMETER BMAGN(BCC_A2,CR,MN:VA;0)  2.98150E+02  .48643;   6.00000E+03   
  N REF326 !
   PARAMETER BMAGN(BCC_A2,CR,MN:VA;2)  2.98150E+02  -.72035;   6.00000E+03   
  N REF326 !
   PARAMETER BMAGN(BCC_A2,CR,MN:VA;4)  2.98150E+02  -1.93265;   6.00000E+03  
   N REF326 !
   PARAMETER G(BCC_A2,CR,MO:VA;0)  2.98150E+02  +28890-7.962*T;   
  6.00000E+03   N REF123 !
   PARAMETER G(BCC_A2,CR,MO:VA;1)  2.98150E+02  +5974-2.428*T;   6.00000E+03 
    N REF123 !
   PARAMETER G(BCC_A2,CR,NI:VA;0)  2.98150E+02  +17170-11.8199*T;   
  6.00000E+03   N REF322 !
   PARAMETER G(BCC_A2,CR,NI:VA;1)  2.98150E+02  +34418-11.8577*T;   
  6.00000E+03   N REF322 !
   PARAMETER TC(BCC_A2,CR,NI:VA;0)  2.98150E+02  2373;   6.00000E+03   N 
  REF162 !
   PARAMETER TC(BCC_A2,CR,NI:VA;1)  2.98150E+02  617;   6.00000E+03   N 
  REF162 !
   PARAMETER BMAGN(BCC_A2,CR,NI:VA;0)  2.98150E+02  4;   6.00000E+03   N 
  REF162 !
   PARAMETER G(BCC_A2,FE,MN:VA;0)  2.98150E+02  -2759+1.237*T;   6.00000E+03 
    N REF261 !
   PARAMETER TC(BCC_A2,FE,MN:VA;0)  2.98150E+02  123;   6.00000E+03   N 
  REF261 !
   PARAMETER G(BCC_A2,FE,MO:VA;0)  2.98150E+02  +36818-9.141*T;   
  6.00000E+03   N REF10 !
   PARAMETER G(BCC_A2,FE,MO:VA;1)  2.98150E+02  -362-5.724*T;   6.00000E+03  
   N REF10 !
   PARAMETER TC(BCC_A2,FE,MO:VA;0)  2.98150E+02  335;   6.00000E+03   N 
  REF10 !
   PARAMETER TC(BCC_A2,FE,MO:VA;1)  2.98150E+02  526;   6.00000E+03   N 
  REF10 !
   PARAMETER G(BCC_A2,FE,MO,NI:VA;0)  2.98150E+02  -35743;   6.00000E+03   N 
  REF132 !
   PARAMETER G(BCC_A2,FE,NI:VA;0)  2.98150E+02  -956.63-1.28726*T;   
  6.00000E+03   N REF158 !
   PARAMETER G(BCC_A2,FE,NI:VA;1)  2.98150E+02  +1789.03-1.92912*T;   
  6.00000E+03   N REF158 !
   PARAMETER G(BCC_A2,MN,NI:VA;0)  2.98150E+02  -51638.31+3.64*T;   
  6.00000E+03   N REF182 !
   PARAMETER G(BCC_A2,MN,NI:VA;1)  2.98150E+02  6276;   6.00000E+03   N 
  REF182 !
   PARAMETER G(BCC_A2,MO,NI:VA;0)  2.98150E+02  46422;   6.00000E+03   N 
  REF125 !


 TYPE_DEFINITION ' GES A_P_D CBCC_A12 MAGNETIC  -3.0    2.80000E-01 !
 PHASE CBCC_A12  %'  2 1   1 !
    CONSTITUENT CBCC_A12  :CR,FE,MN%,NI : N,VA% :  !

   PARAMETER G(CBCC_A12,CR:N;0) 298.15 UN_ASS; 300 N REF0 !
   PARAMETER G(CBCC_A12,FE:N;0) 298.15 UN_ASS; 300 N REF0 !
   PARAMETER G(CBCC_A12,MN:N;0)  2.98150E+02  -53114+299.266*T
  -50.216*T*LN(T)+358309*T**(-1);  2.50000E+03  N REF317 !
   PARAMETER G(CBCC_A12,NI:N;0) 298.15 UN_ASS; 300 N REF0 !
   PARAMETER G(CBCC_A12,CR:VA;0)  2.98150E+02  +11087+2.7196*T+GHSERCR#;   
  6.00000E+03   N REF283 !
   PARAMETER G(CBCC_A12,FE:VA;0)  2.98150E+02  +4745+GHSERFE#;   6.00000E+03 
    N REF283 !
   PARAMETER G(CBCC_A12,MN:VA;0)  2.98150E+02  +GHSERMN#;  2.00000E+03  N 
  REF283 !
   PARAMETER TC(CBCC_A12,MN:VA;0)  2.98150E+02  -285;  2.00000E+03  N REF281 !
   PARAMETER BMAGN(CBCC_A12,MN:VA;0)  2.98150E+02  -.66;  2.00000E+03  N 
  REF281 !
   PARAMETER G(CBCC_A12,NI:VA;0)  2.98150E+02  +3556+GHSERNI#;  3.00000E+03  
  N REF283 !
   PARAMETER G(CBCC_A12,MN:N,VA;0)  2.98150E+02  -58869;  2.50000E+03  N 
  REF317 !
   PARAMETER G(CBCC_A12,CR,MN:VA;0)  2.98150E+02  -36796+20.385*T;   
  6.00000E+03   N REF326 !
   PARAMETER G(CBCC_A12,FE,MN:VA;0)  2.98150E+02  -10184;   6.00000E+03   N 
  REF261 !
   PARAMETER G(CBCC_A12,MN,NI:VA;0)  2.98150E+02  -54754.84+17.991*T;   
  6.00000E+03   N REF0 !
   PARAMETER G(CBCC_A12,MN,NI:VA;1)  2.98150E+02  -11924;   6.00000E+03   N 
  REF0 !


 PHASE CEMENTITE  %  2 3   1 !
    CONSTITUENT CEMENTITE  :CR,FE%,MN,MO,NI : N :  !

   PARAMETER G(CEMENTITE,CR:N;0) 298.15 UN_ASS; 300 N REF0 !
   PARAMETER G(CEMENTITE,FE:N;0)  2.98150E+02  -20060+538.7902*T
  -99.7371*T*LN(T)+226735*T**(-1);   6.00000E+03   N REF319 !
   PARAMETER G(CEMENTITE,MN:N;0) 298.15 UN_ASS; 300 N REF0 !
   PARAMETER G(CEMENTITE,MO:N;0) 298.15 UN_ASS; 300 N REF0 !
   PARAMETER G(CEMENTITE,NI:N;0) 298.15 UN_ASS; 300 N REF0 !


 PHASE CHI_A12  %  3 24   10   24 !
    CONSTITUENT CHI_A12  :CR,FE : CR,MO : CR,FE,MO :  !

   PARAMETER G(CHI_A12,CR:CR:CR;0)  2.98150E+02  +48*GCRFCC#+10*GHSERCR#
  +109000+123*T;   6.00000E+03   N REF213 !
   PARAMETER G(CHI_A12,FE:CR:CR;0)  2.98150E+02  +24*GFEFCC#+10*GHSERCR#
  +24*GCRFCC#+18300-100*T;   6.00000E+03   N REF115 !
   PARAMETER G(CHI_A12,CR:MO:CR;0)  2.98150E+02  +24*GCRFCC#+10*GHSERMO#
  +24*GCRFCC#-26000;   6.00000E+03   N REF213 !
   PARAMETER G(CHI_A12,FE:MO:CR;0)  2.98150E+02  +24*GFEFCC#+10*GHSERMO#
  +24*GCRFCC#+32555-385*T;   6.00000E+03   N REF213 !
   PARAMETER G(CHI_A12,CR:CR:FE;0)  2.98150E+02  +24*GCRFCC#+10*GHSERCR#
  +24*GFEFCC#+500000;   6.00000E+03   N REF213 !
   PARAMETER G(CHI_A12,FE:CR:FE;0)  2.98150E+02  +48*GFEFCC#+10*GHSERCR#
  +57300-100*T;   6.00000E+03   N REF115 !
   PARAMETER G(CHI_A12,CR:MO:FE;0)  2.98150E+02  +24*GCRFCC#+10*GHSERMO#
  +24*GFEFCC#+500000;   6.00000E+03   N REF213 !
   PARAMETER G(CHI_A12,FE:MO:FE;0)  2.98150E+02  +48*GFEFCC#+10*GHSERMO#
  +305210-270*T;   6.00000E+03   N REF115 !
   PARAMETER G(CHI_A12,CR:CR:MO;0)  2.98150E+02  +24*GCRFCC#+10*GHSERCR#
  +24*GMOFCC#+500000;   6.00000E+03   N REF213 !
   PARAMETER G(CHI_A12,FE:CR:MO;0)  2.98150E+02  +24*GFEFCC#+10*GHSERCR#
  +24*GMOFCC#+100000;   6.00000E+03   N REF115 !
   PARAMETER G(CHI_A12,CR:MO:MO;0)  2.98150E+02  +24*GCRFCC#+10*GHSERMO#
  +24*GMOFCC#+500000;   6.00000E+03   N REF213 !
   PARAMETER G(CHI_A12,FE:MO:MO;0)  2.98150E+02  +24*GFEFCC#+10*GHSERMO#
  +24*GMOFCC#+97300-100*T;   6.00000E+03   N REF115 !


 PHASE CR3MN5  %  2 3   5 !
    CONSTITUENT CR3MN5  :CR : MN :  !

   PARAMETER G(CR3MN5,CR:MN;0)  2.98150E+02  +3*GHSERCR#+5*GHSERMN#-72550
  +21.1732*T;   6.00000E+03   N REF326 !


 PHASE CR3SI  %  2 3   1 !
    CONSTITUENT CR3SI  :CR% : CR :  !

   PARAMETER G(CR3SI,CR:CR;0)  2.98150E+02  +17008.82+4*T+4*GHSERCR#;   
  6.00000E+03   N REF90 !


 PHASE CRSI2  %  2 1   2 !
    CONSTITUENT CRSI2  :CR% : CR :  !

   PARAMETER G(CRSI2,CR:CR;0)  2.98150E+02  +10000+10*T+3*GHSERCR#;   
  6.00000E+03   N REF90 !


 PHASE CUB_A13  %  2 1   1 !
    CONSTITUENT CUB_A13  :CR,FE,MN%,NI : N,VA% :  !

   PARAMETER G(CUB_A13,CR:N;0) 298.15 UN_ASS; 300 N REF0 !
   PARAMETER G(CUB_A13,FE:N;0) 298.15 UN_ASS; 300 N REF0 !
   PARAMETER G(CUB_A13,MN:N;0)  2.98150E+02  -67484+299.266*T-50.216*T*LN(T)
  +358309*T**(-1);  2.50000E+03  N REF317 !
   PARAMETER G(CUB_A13,NI:N;0) 298.15 UN_ASS; 300 N REF0 !
   PARAMETER G(CUB_A13,CR:VA;0)  2.98150E+02  +15899+.6276*T+GHSERCR#;   
  6.00000E+03   N REF283 !
   PARAMETER G(CUB_A13,FE:VA;0)  2.98150E+02  +3745+GHSERFE#;   6.00000E+03  
   N REF283 !
   PARAMETER G(CUB_A13,MN:VA;0)  2.98150E+02  -5800.4+135.995*T
  -24.8785*T*LN(T)-.00583359*T**2+70269*T**(-1);  1.51900E+03  Y
   -28290.76+311.2933*T-48*T*LN(T)+3.96757E+30*T**(-9);  2.00000E+03  N 
  REF283 !
   PARAMETER G(CUB_A13,NI:VA;0)  2.98150E+02  +2092+GHSERNI#;  3.00000E+03  
  N REF283 !
   PARAMETER G(CUB_A13,MN:N,VA;0)  2.98150E+02  -58869;  2.50000E+03  N 
  REF317 !
   PARAMETER G(CUB_A13,CR,MN:VA;0)  2.98150E+02  -31260+16.4919*T;   
  6.00000E+03   N REF326 !
   PARAMETER G(CUB_A13,FE,MN:VA;0)  2.98150E+02  -11518+2.819*T;   
  6.00000E+03   N REF261 !
   PARAMETER G(CUB_A13,MN,NI:VA;0)  2.98150E+02  -62040.75+26.82825*T;   
  6.00000E+03   N REF182 !
   PARAMETER G(CUB_A13,MN,NI:VA;1)  2.98150E+02  -12370.01;   6.00000E+03   
  N REF182 !


 TYPE_DEFINITION ( GES A_P_D FCC_A1 MAGNETIC  -3.0    2.80000E-01 !
 PHASE FCC_A1  %(  2 1   1 !
    CONSTITUENT FCC_A1  :CR,FE%,MN,MO,NI% : N,VA% :  !

   PARAMETER G(FCC_A1,CR:N;0)  2.98150E+02  -124460+142.16*T-8.5*T*LN(T)
  +GHSERCR#+GHSERNN#;   6.00000E+03   N REF128 !
   PARAMETER G(FCC_A1,FE:N;0)  2.98150E+02  -20277+245.3931*T
  -21.2984*T*LN(T)+GHSERFE#+GHSERNN#;   6.00000E+03   N REF319 !
   PARAMETER G(FCC_A1,MN:N;0)  2.98150E+02  -75940+292.226*T-50.294*T*LN(T)
  +265051*T**(-1);  2.50000E+03  N REF317 !
   PARAMETER G(FCC_A1,MO:N;0)  2.98150E+02  +GHSERMO#+GHSERNN#-65344+149.7*T
  -9.78*T*LN(T);   6.00000E+03   N REF128 !
   PARAMETER G(FCC_A1,NI:N;0)  2.98150E+02  +38680+143.09*T-10.9*T*LN(T)
  +.00438*T**2+GHSERNI#+GHSERNN#;   6.00000E+03   N REF123 !
   PARAMETER G(FCC_A1,CR:VA;0)  2.98150E+02  +GCRFCC#+GPCRBCC#;   
  6.00000E+03   N REF281 !
   PARAMETER TC(FCC_A1,CR:VA;0)  2.98150E+02  -1109;   6.00000E+03   N 
  REF281 !
   PARAMETER BMAGN(FCC_A1,CR:VA;0)  2.98150E+02  -2.46;   6.00000E+03   N 
  REF281 !
   PARAMETER G(FCC_A1,FE:VA;0)  2.98150E+02  +GFEFCC#+GPFEFCC#;   
  6.00000E+03   N REF283 !
   PARAMETER TC(FCC_A1,FE:VA;0)  2.98150E+02  -201;   6.00000E+03   N REF281 !
   PARAMETER BMAGN(FCC_A1,FE:VA;0)  2.98150E+02  -2.1;   6.00000E+03   N 
  REF281 !
   PARAMETER G(FCC_A1,MN:VA;0)  2.98150E+02  +GMNFCC#;   6.00000E+03   N 
  REF283 !
   PARAMETER TC(FCC_A1,MN:VA;0)  2.98150E+02  -1620;  2.00000E+03  N REF281 !
   PARAMETER BMAGN(FCC_A1,MN:VA;0)  2.98150E+02  -1.86;  2.00000E+03  N 
  REF281 !
   PARAMETER G(FCC_A1,MO:VA;0)  2.98150E+02  +15200+.63*T+GHSERMO#+GPMOBCC#; 
   5.00000E+03  N REF283 !
   PARAMETER G(FCC_A1,NI:VA;0)  2.98150E+02  +GHSERNI#;  3.00000E+03  N 
  REF283 !
   PARAMETER TC(FCC_A1,NI:VA;0)  2.98150E+02  633;   6.00000E+03   N REF281 !
   PARAMETER BMAGN(FCC_A1,NI:VA;0)  2.98150E+02  .52;   6.00000E+03   N 
  REF281 !
   PARAMETER G(FCC_A1,CR,FE:N;0)  2.98150E+02  -128930+86.49*T;   
  6.00000E+03   N REF126 !
   PARAMETER G(FCC_A1,CR,FE:N;1)  2.98150E+02  24330;   6.00000E+03   N 
  REF126 !
   PARAMETER G(FCC_A1,CR,FE:N,VA;0)  2.98150E+02  -162516;   6.00000E+03   N 
  REF126 !
   PARAMETER G(FCC_A1,CR,MO:N;0)  2.98150E+02  -40000;   6.00000E+03   N 
  REF128 !
   PARAMETER G(FCC_A1,CR,NI:N,VA;0)  2.98150E+02  -661270+305*T;   
  6.00000E+03   N REF129 !
   PARAMETER G(FCC_A1,CR:N,VA;0)  2.98150E+02  20000;   6.00000E+03   N 
  REF128 !
   PARAMETER G(FCC_A1,FE,NI:N;0)  2.98150E+02  -22710+5.19*T;   6.00000E+03  
   N REF129 !
   PARAMETER G(FCC_A1,FE,NI:N;1)  2.98150E+02  3334;   6.00000E+03   N 
  REF129 !
   PARAMETER G(FCC_A1,FE:N,VA;0)  2.98150E+02  -26150;   6.00000E+03   N 
  REF128 !
   PARAMETER G(FCC_A1,MN:N,VA;0)  2.98150E+02  -69698+11.5845*T;  
  2.50000E+03  N REF317 !
   PARAMETER G(FCC_A1,MO:N,VA;0)  2.98150E+02  -52565;   6.00000E+03   N 
  REF128 !
   PARAMETER G(FCC_A1,CR,FE:VA;0)  2.98150E+02  +10833-7.477*T;   
  6.00000E+03   N REF107 !
   PARAMETER G(FCC_A1,CR,FE:VA;1)  2.98150E+02  1410;   6.00000E+03   N 
  REF107 !
   PARAMETER G(FCC_A1,CR,FE,MN:VA;0)  2.98150E+02  -6815;   6.00000E+03   N 
  REF326 !
   PARAMETER G(FCC_A1,CR,FE,NI:VA;0)  2.98150E+02  +16580-9.783*T;   
  6.00000E+03   N REF322 !
   PARAMETER G(FCC_A1,CR,MN:VA;0)  2.98150E+02  -19088+17.5423*T;   
  6.00000E+03   N REF326 !
   PARAMETER G(FCC_A1,CR,MO:VA;0)  2.98150E+02  +28890-7.962*T;   
  6.00000E+03   N REF58 !
   PARAMETER G(FCC_A1,CR,MO:VA;1)  2.98150E+02  +5974-2.428*T;   6.00000E+03 
    N REF58 !
   PARAMETER G(FCC_A1,CR,MO,NI:VA;0)  2.98150E+02  -30000;   6.00000E+03   N 
  REF58 !
   PARAMETER G(FCC_A1,CR,NI:VA;0)  2.98150E+02  +8030-12.8801*T;   
  6.00000E+03   N REF322 !
   PARAMETER G(FCC_A1,CR,NI:VA;1)  2.98150E+02  +33080-16.0362*T;   
  6.00000E+03   N REF322 !
   PARAMETER TC(FCC_A1,CR,NI:VA;0)  2.98150E+02  -3605;   6.00000E+03   N 
  REF162 !
   PARAMETER BMAGN(FCC_A1,CR,NI:VA;0)  2.98150E+02  -1.91;   6.00000E+03   N 
  REF162 !
   PARAMETER G(FCC_A1,FE,MN:VA;0)  2.98150E+02  -7762+3.865*T;   6.00000E+03 
    N REF261 !